Ru  H                                   
   1.00000000000000     
     8.3219397077844786    0.0000000000000000    0.0000000000000000
     0.0000000000000000    8.3219397077844786    0.0000000000000000
     0.0000000000000000    0.0000000000000000   20.8844999999999992
   Ru   H 
    36     1
Direct
  0.1678482019531895  0.1654851313801391  0.3717925238867894
  0.8333333333333357  0.1663990915472193  0.5504717477477935
  0.1669342417861093  0.5000000000000000  0.5504717477477935
  0.4997324248805550  0.5000000000000000  0.5504717477477935
  0.8333333333333357  0.5000000000000000  0.5501136310858464
  0.1649976048902506  0.8316642715569221  0.5505187269660891
  0.5016690617764138  0.8316642715569221  0.5505187269660891
  0.5016690617764138  0.1683357284430780  0.5505187269660891
  0.8333333333333357  0.8336009084527806  0.5504717477477935
  0.3333333333333357 -0.0000000000000000  0.6268667298893937
  0.6685476426255943 -0.0000000000000000  0.6294123366212385
 -0.0016213861031170  0.3349547194364528  0.6290296513387613
  0.3333333333333357  0.3352143092922656  0.6294123366212385
  0.6682880527697815  0.3349547194364528  0.6290296513387613
 -0.0016213861031170  0.6650452805635471  0.6290296513387613
 -0.0018809759589301 -0.0000000000000000  0.6294123366212385
  0.1649976048902506  0.1683357284430780  0.5505187269660891
  0.6662131815380750  0.6671201517952536  0.4503095511922924
  0.3333333333333357  0.6675153811196181  0.4508558622017993
  0.4988184647134747  0.1654851313801391  0.3717925238867894
  0.8333333333333357  0.1661058634560250  0.3721943131957272
  0.1672274698773036  0.5000000000000000  0.3721943131957272
  0.4994391967893606  0.5000000000000000  0.3721943131957272
  0.8333333333333357  0.5000000000000000  0.3718950514135700
  0.1678482019531895  0.8345148686198609  0.3717925238867894
  0.4988184647134747  0.8345148686198609  0.3717925238867894
  0.8333333333333357  0.8338941365439754  0.3721943131957272
  0.0008487144529537 -0.0000000000000000  0.4508558622017993
  0.3333333333333357 -0.0000000000000000  0.4516170843948133
  0.6658179522137105 -0.0000000000000000  0.4508558622017993
  0.0004534851285895  0.3328798482047463  0.4503095511922924
  0.3333333333333357  0.3324846188803820  0.4508558622017993
  0.6662131815380750  0.3328798482047463  0.4503095511922924
  0.0004534851285895  0.6671201517952536  0.4503095511922924
  0.3333333333333357  0.6647856907077343  0.6294123366212385
  0.6682880527697815  0.6650452805635471  0.6290296513387613
  0.3333333333333357 -0.0000000000000000  0.7053317390339154
 
  0.00000000E+00  0.00000000E+00  0.00000000E+00
  0.00000000E+00  0.00000000E+00  0.00000000E+00
  0.00000000E+00  0.00000000E+00  0.00000000E+00
  0.00000000E+00  0.00000000E+00  0.00000000E+00
  0.00000000E+00  0.00000000E+00  0.00000000E+00
  0.00000000E+00  0.00000000E+00  0.00000000E+00
  0.00000000E+00  0.00000000E+00  0.00000000E+00
  0.00000000E+00  0.00000000E+00  0.00000000E+00
  0.00000000E+00  0.00000000E+00  0.00000000E+00
  0.00000000E+00  0.00000000E+00  0.00000000E+00
  0.00000000E+00  0.00000000E+00  0.00000000E+00
  0.00000000E+00  0.00000000E+00  0.00000000E+00
  0.00000000E+00  0.00000000E+00  0.00000000E+00
  0.00000000E+00  0.00000000E+00  0.00000000E+00
  0.00000000E+00  0.00000000E+00  0.00000000E+00
  0.00000000E+00  0.00000000E+00  0.00000000E+00
  0.00000000E+00  0.00000000E+00  0.00000000E+00
  0.00000000E+00  0.00000000E+00  0.00000000E+00
  0.00000000E+00  0.00000000E+00  0.00000000E+00
  0.00000000E+00  0.00000000E+00  0.00000000E+00
  0.00000000E+00  0.00000000E+00  0.00000000E+00
  0.00000000E+00  0.00000000E+00  0.00000000E+00
  0.00000000E+00  0.00000000E+00  0.00000000E+00
  0.00000000E+00  0.00000000E+00  0.00000000E+00
  0.00000000E+00  0.00000000E+00  0.00000000E+00
  0.00000000E+00  0.00000000E+00  0.00000000E+00
  0.00000000E+00  0.00000000E+00  0.00000000E+00
  0.00000000E+00  0.00000000E+00  0.00000000E+00
  0.00000000E+00  0.00000000E+00  0.00000000E+00
  0.00000000E+00  0.00000000E+00  0.00000000E+00
  0.00000000E+00  0.00000000E+00  0.00000000E+00
  0.00000000E+00  0.00000000E+00  0.00000000E+00
  0.00000000E+00  0.00000000E+00  0.00000000E+00
  0.00000000E+00  0.00000000E+00  0.00000000E+00
  0.00000000E+00  0.00000000E+00  0.00000000E+00
  0.00000000E+00  0.00000000E+00  0.00000000E+00
  0.00000000E+00  0.00000000E+00  0.00000000E+00
