Ru  H                                   
   1.00000000000000     
     8.3219397077844786    0.0000000000000000    0.0000000000000000
     0.0000000000000000    8.3219397077844786    0.0000000000000000
     0.0000000000000000    0.0000000000000000   20.8844999999999992
   Ru   H 
    36     1
Direct
  0.1666666666666643  0.1666666666666643  0.3725908790255267
  0.8331076370786833  0.1666666666666643  0.5505214263798606
  0.1666666666666643  0.4988503169311796  0.5504182266289868
  0.5007523183185936  0.5005408488086095  0.5513250006102289
  0.8325810150147421  0.5005408488086095  0.5513250006102289
  0.1666666666666643  0.8344830164021563  0.5504182266289868
  0.5007523183185936  0.8327924845247262  0.5513250006102289
  0.5002256962546523  0.1666666666666643  0.5505214263798606
  0.8325810150147421  0.8327924845247262  0.5513250006102289
  0.3340941811277564  0.0033664429460084  0.6291667250822870
  0.6666666666666643  0.0005961240371184  0.6296078583559206
 -0.0007608477944207  0.3299668903873274  0.6291667250822870
  0.3340941811277564  0.3299668903873273  0.6291667250822870
  0.6666666666666643  0.3327372092962174  0.6296078583559206
  0.0049129096407530  0.6666666666666643  0.6301601896612771
 -0.0007608477944207  0.0033664429460085  0.6291667250822870
  0.1666666666666643  0.1666666666666643  0.5501420400675777
  0.6666666666666643  0.6666666666666643  0.4517522738838528
  0.3334303210453093  0.6666666666666643  0.4517332507465581
  0.4998789398578553  0.1666666666666643  0.3722884702243453
  0.8334543934754803  0.1666666666666643  0.3722884702243453
  0.1666666666666643  0.5017701406857692  0.3721935523633007
  0.4998321780501893  0.5011192666514300  0.3725493480355193
  0.8335011552831463  0.5011192666514300  0.3725493480355193
  0.1666666666666643  0.8315631926475665  0.3721935523633007
  0.4998321780501893  0.8322140666819057  0.3725493480355193
  0.8335011552831463  0.8322140666819057  0.3725493480355193
  0.0003150570504755 -0.0008338059770614  0.4508826578471742
  0.3330182762828601 -0.0008338059770614  0.4508826578471742
  0.6666666666666643  0.0004651434436982  0.4505418537564749
  0.0003150570504755  0.3341671393103971  0.4508826578471742
  0.3330182762828601  0.3341671393103971  0.4508826578471742
  0.6666666666666643  0.3328681898896374  0.4505418537564749
 -0.0000969877119735  0.6666666666666643  0.4517332507465581
  0.3284204236925828  0.6666666666666643  0.6301601896612771
  0.6666666666666643  0.6666666666666643  0.6297689045865436
  0.1666666666666643  0.6666666666666643  0.6892844083217147
 
  0.00000000E+00  0.00000000E+00  0.00000000E+00
  0.00000000E+00  0.00000000E+00  0.00000000E+00
  0.00000000E+00  0.00000000E+00  0.00000000E+00
  0.00000000E+00  0.00000000E+00  0.00000000E+00
  0.00000000E+00  0.00000000E+00  0.00000000E+00
  0.00000000E+00  0.00000000E+00  0.00000000E+00
  0.00000000E+00  0.00000000E+00  0.00000000E+00
  0.00000000E+00  0.00000000E+00  0.00000000E+00
  0.00000000E+00  0.00000000E+00  0.00000000E+00
  0.00000000E+00  0.00000000E+00  0.00000000E+00
  0.00000000E+00  0.00000000E+00  0.00000000E+00
  0.00000000E+00  0.00000000E+00  0.00000000E+00
  0.00000000E+00  0.00000000E+00  0.00000000E+00
  0.00000000E+00  0.00000000E+00  0.00000000E+00
  0.00000000E+00  0.00000000E+00  0.00000000E+00
  0.00000000E+00  0.00000000E+00  0.00000000E+00
  0.00000000E+00  0.00000000E+00  0.00000000E+00
  0.00000000E+00  0.00000000E+00  0.00000000E+00
  0.00000000E+00  0.00000000E+00  0.00000000E+00
  0.00000000E+00  0.00000000E+00  0.00000000E+00
  0.00000000E+00  0.00000000E+00  0.00000000E+00
  0.00000000E+00  0.00000000E+00  0.00000000E+00
  0.00000000E+00  0.00000000E+00  0.00000000E+00
  0.00000000E+00  0.00000000E+00  0.00000000E+00
  0.00000000E+00  0.00000000E+00  0.00000000E+00
  0.00000000E+00  0.00000000E+00  0.00000000E+00
  0.00000000E+00  0.00000000E+00  0.00000000E+00
  0.00000000E+00  0.00000000E+00  0.00000000E+00
  0.00000000E+00  0.00000000E+00  0.00000000E+00
  0.00000000E+00  0.00000000E+00  0.00000000E+00
  0.00000000E+00  0.00000000E+00  0.00000000E+00
  0.00000000E+00  0.00000000E+00  0.00000000E+00
  0.00000000E+00  0.00000000E+00  0.00000000E+00
  0.00000000E+00  0.00000000E+00  0.00000000E+00
  0.00000000E+00  0.00000000E+00  0.00000000E+00
  0.00000000E+00  0.00000000E+00  0.00000000E+00
  0.00000000E+00  0.00000000E+00  0.00000000E+00
