Ir  H                                   
   1.00000000000000     
     8.3219397077844786    0.0000000000000000    0.0000000000000000
     0.0000000000000000    8.3219397077844786    0.0000000000000000
     0.0000000000000000    0.0000000000000000   20.8844999999999992
   Ir   H 
    36     1
Direct
  0.1666666666666643  0.1666666666666643  0.3666635812041910
  0.8334440400907619  0.1666666666666643  0.5477439350981285
  0.1666666666666643  0.5000992817681564  0.5484473610437796
  0.5001906086412113  0.5000948571683439  0.5486879449376801
  0.8331427246921244  0.5000948571683439  0.5486879449376801
  0.1666666666666643  0.8332340515651793  0.5484473610437796
  0.5001906086412113  0.8332384761649918  0.5486879449376801
  0.4998892932425740  0.1666666666666643  0.5477439350981285
  0.8331427246921244  0.8332384761649918  0.5486879449376801
  0.3335567145313720  0.0026685637792299  0.6355011564435034
  0.6666666666666643  0.0009250427526515  0.6355002489148905
 -0.0002233811980363  0.3306647695541058  0.6355011564435034
  0.3335567145313720  0.3306647695541058  0.6355011564435034
  0.6666666666666643  0.3324082905806842  0.6355002489148905
 -0.0009252953356666  0.6666666666666643  0.6370215808882236
 -0.0002233811980363  0.0026685637792299  0.6355011564435034
  0.1666666666666643  0.1666666666666643  0.5475878252112911
  0.6666666666666643  0.6666666666666643  0.4536209684233661
  0.3336674949788382  0.6666666666666643  0.4536028863441556
  0.4990918194330861  0.1666666666666643  0.3664188308805574
  0.8342415139002496  0.1666666666666643  0.3664188308805574
  0.1666666666666643  0.4997246351114822  0.3664096286509467
  0.5000412411347043  0.4995717572764347  0.3663109027980342
  0.8332920921986314  0.4995717572764347  0.3663109027980342
  0.1666666666666643  0.8336086982218537  0.3664096286509467
  0.5000412411347043  0.8337615760569012  0.3663109027980342
  0.8332920921986314  0.8337615760569012  0.3663109027980342
 -0.0002049021229555 -0.0005938696461641  0.4538977977492117
  0.3335382354562913 -0.0005938696461641  0.4538977977492117
  0.6666666666666643  0.0004781363139123  0.4534919737281372
 -0.0002049021229555  0.3339272029794998  0.4538977977492117
  0.3335382354562913  0.3339272029794998  0.4538977977492117
  0.6666666666666643  0.3328551970194233  0.4534919737281372
 -0.0003341616455025  0.6666666666666643  0.4536028863441556
  0.3342586286690023  0.6666666666666643  0.6370215808882236
  0.6666666666666643  0.6666666666666643  0.6358931443494222
  0.1666666666666643  0.6666666666666643  0.6917154943535074
 
  0.00000000E+00  0.00000000E+00  0.00000000E+00
  0.00000000E+00  0.00000000E+00  0.00000000E+00
  0.00000000E+00  0.00000000E+00  0.00000000E+00
  0.00000000E+00  0.00000000E+00  0.00000000E+00
  0.00000000E+00  0.00000000E+00  0.00000000E+00
  0.00000000E+00  0.00000000E+00  0.00000000E+00
  0.00000000E+00  0.00000000E+00  0.00000000E+00
  0.00000000E+00  0.00000000E+00  0.00000000E+00
  0.00000000E+00  0.00000000E+00  0.00000000E+00
  0.00000000E+00  0.00000000E+00  0.00000000E+00
  0.00000000E+00  0.00000000E+00  0.00000000E+00
  0.00000000E+00  0.00000000E+00  0.00000000E+00
  0.00000000E+00  0.00000000E+00  0.00000000E+00
  0.00000000E+00  0.00000000E+00  0.00000000E+00
  0.00000000E+00  0.00000000E+00  0.00000000E+00
  0.00000000E+00  0.00000000E+00  0.00000000E+00
  0.00000000E+00  0.00000000E+00  0.00000000E+00
  0.00000000E+00  0.00000000E+00  0.00000000E+00
  0.00000000E+00  0.00000000E+00  0.00000000E+00
  0.00000000E+00  0.00000000E+00  0.00000000E+00
  0.00000000E+00  0.00000000E+00  0.00000000E+00
  0.00000000E+00  0.00000000E+00  0.00000000E+00
  0.00000000E+00  0.00000000E+00  0.00000000E+00
  0.00000000E+00  0.00000000E+00  0.00000000E+00
  0.00000000E+00  0.00000000E+00  0.00000000E+00
  0.00000000E+00  0.00000000E+00  0.00000000E+00
  0.00000000E+00  0.00000000E+00  0.00000000E+00
  0.00000000E+00  0.00000000E+00  0.00000000E+00
  0.00000000E+00  0.00000000E+00  0.00000000E+00
  0.00000000E+00  0.00000000E+00  0.00000000E+00
  0.00000000E+00  0.00000000E+00  0.00000000E+00
  0.00000000E+00  0.00000000E+00  0.00000000E+00
  0.00000000E+00  0.00000000E+00  0.00000000E+00
  0.00000000E+00  0.00000000E+00  0.00000000E+00
  0.00000000E+00  0.00000000E+00  0.00000000E+00
  0.00000000E+00  0.00000000E+00  0.00000000E+00
  0.00000000E+00  0.00000000E+00  0.00000000E+00
