Pd  H                                   
   1.00000000000000     
     8.3219397077844786    0.0000000000000000    0.0000000000000000
     0.0000000000000000    8.3219397077844786    0.0000000000000000
     0.0000000000000000    0.0000000000000000   20.8844999999999992
   Pd   H 
    36     1
Direct
  0.1666666666666643  0.1663925050396713  0.3576846633195385
  0.8336626674513019  0.1669960007846302  0.5506921069219043
  0.1666666666666643  0.5000000000000000  0.5488668461771655
  0.5004084608489983  0.5000000000000000  0.5500764033821263
  0.8329248724843373  0.5000000000000000  0.5500764033821263
  0.1666666666666643  0.8337417941823341  0.5500764033821263
  0.4996706658820340  0.8330039992153695  0.5506921069219043
  0.4996706658820340  0.1669960007846302  0.5506921069219043
  0.8336626674513019  0.8330039992153695  0.5506921069219043
  0.3334295310045152 -0.0000000000000000  0.6461907386661400
  0.6666666666666643 -0.0000000000000000  0.6463196664855606
  0.0012569802017748  0.3345903135351104  0.6473760652810232
  0.3320763531315610  0.3345903135351104  0.6473760652810232
  0.6666666666666643  0.3332371356621562  0.6461907386661400
  0.0012569802017748  0.6654096864648894  0.6473760652810232
 -0.0000961976711795 -0.0000000000000000  0.6461907386661400
  0.1666666666666643  0.1662582058176660  0.5500764033821263
  0.6666666666666643  0.6672561748960775  0.4536607169718148
  0.3336766882043675  0.6670100215376961  0.4535088563586083
  0.5000784543307741  0.1665882123358901  0.3576998922922912
  0.8332548790025616  0.1665882123358901  0.3576998922922912
  0.1666666666666643  0.5000000000000000  0.3579490544835109
  0.5002741616269928  0.5000000000000000  0.3576846633195385
  0.8330591717063430  0.5000000000000000  0.3576846633195385
  0.1666666666666643  0.8336074949603284  0.3576846633195385
  0.5000784543307741  0.8334117876641098  0.3576998922922912
  0.8332548790025616  0.8334117876641098  0.3576998922922912
 -0.0005895082294128 -0.0000000000000000  0.4536607169718148
  0.3339228415627484 -0.0000000000000000  0.4536607169718148
  0.6666666666666643 -0.0000000000000000  0.4534270712992028
 -0.0003433548710319  0.3329899784623039  0.4535088563586083
  0.3336766882043675  0.3329899784623039  0.4535088563586083
  0.6666666666666643  0.3327438251039230  0.4536607169718148
 -0.0003433548710319  0.6670100215376961  0.4535088563586083
  0.3320763531315610  0.6654096864648894  0.6473760652810232
  0.6666666666666643  0.6667628643378438  0.6461907386661400
  0.1666666666666643  0.5000000000000000  0.6658778458902634
 
  0.00000000E+00  0.00000000E+00  0.00000000E+00
  0.00000000E+00  0.00000000E+00  0.00000000E+00
  0.00000000E+00  0.00000000E+00  0.00000000E+00
  0.00000000E+00  0.00000000E+00  0.00000000E+00
  0.00000000E+00  0.00000000E+00  0.00000000E+00
  0.00000000E+00  0.00000000E+00  0.00000000E+00
  0.00000000E+00  0.00000000E+00  0.00000000E+00
  0.00000000E+00  0.00000000E+00  0.00000000E+00
  0.00000000E+00  0.00000000E+00  0.00000000E+00
  0.00000000E+00  0.00000000E+00  0.00000000E+00
  0.00000000E+00  0.00000000E+00  0.00000000E+00
  0.00000000E+00  0.00000000E+00  0.00000000E+00
  0.00000000E+00  0.00000000E+00  0.00000000E+00
  0.00000000E+00  0.00000000E+00  0.00000000E+00
  0.00000000E+00  0.00000000E+00  0.00000000E+00
  0.00000000E+00  0.00000000E+00  0.00000000E+00
  0.00000000E+00  0.00000000E+00  0.00000000E+00
  0.00000000E+00  0.00000000E+00  0.00000000E+00
  0.00000000E+00  0.00000000E+00  0.00000000E+00
  0.00000000E+00  0.00000000E+00  0.00000000E+00
  0.00000000E+00  0.00000000E+00  0.00000000E+00
  0.00000000E+00  0.00000000E+00  0.00000000E+00
  0.00000000E+00  0.00000000E+00  0.00000000E+00
  0.00000000E+00  0.00000000E+00  0.00000000E+00
  0.00000000E+00  0.00000000E+00  0.00000000E+00
  0.00000000E+00  0.00000000E+00  0.00000000E+00
  0.00000000E+00  0.00000000E+00  0.00000000E+00
  0.00000000E+00  0.00000000E+00  0.00000000E+00
  0.00000000E+00  0.00000000E+00  0.00000000E+00
  0.00000000E+00  0.00000000E+00  0.00000000E+00
  0.00000000E+00  0.00000000E+00  0.00000000E+00
  0.00000000E+00  0.00000000E+00  0.00000000E+00
  0.00000000E+00  0.00000000E+00  0.00000000E+00
  0.00000000E+00  0.00000000E+00  0.00000000E+00
  0.00000000E+00  0.00000000E+00  0.00000000E+00
  0.00000000E+00  0.00000000E+00  0.00000000E+00
  0.00000000E+00  0.00000000E+00  0.00000000E+00
