Fe  H                                   
   1.00000000000000     
     8.3219397077844786    0.0000000000000000    0.0000000000000000
     0.0000000000000000    8.3219397077844786    0.0000000000000000
     0.0000000000000000    0.0000000000000000   20.8844999999999992
   Fe   H 
    36     1
Direct
  0.1591830224672736  0.1741503108660550  0.3915718961838892
  0.8333333333333357  0.1640951526220265  0.5384141981489122
  0.1692381807113021  0.5000000000000000  0.5384141981489122
  0.4974284859553624  0.5000000000000000  0.5384141981489122
  0.8333333333333357  0.5000000000000000  0.5382676914359681
  0.1679689834390075  0.8346356501056789  0.5356808436145098
  0.4986976832276568  0.8346356501056789  0.5356808436145098
  0.4986976832276568  0.1653643498943211  0.5356808436145098
  0.8333333333333357  0.8359048473779732  0.5384141981489122
  0.3333333333333357  0.0000000000000000  0.6166504355779369
  0.6490743422882231  0.0000000000000000  0.6095665871639554
 -0.0020101003453689  0.3353434336787046  0.6098041820232400
  0.3333333333333357  0.3157410089548945  0.6095665871639554
  0.6686767670120332  0.3353434336787046  0.6098041820232400
 -0.0020101003453689  0.6646565663212954  0.6098041820232400
  0.0175923243784412  0.0000000000000000  0.6095665871639554
  0.1679689834390075  0.1653643498943211  0.5356808436145098
  0.6681150391824052  0.6652182941509234  0.4643142378729779
  0.3333333333333357  0.6661064541771393  0.4630072546836820
  0.5074836441993906  0.1741503108660550  0.3915718961838892
  0.8333333333333357  0.1601173495492314  0.3884733463803733
  0.1732159837840972  0.5000000000000000  0.3884733463803733
  0.4934506828825671  0.5000000000000000  0.3884733463803733
  0.8333333333333357  0.5000000000000000  0.3923232330014774
  0.1591830224672736  0.8258496891339450  0.3915718961838892
  0.5074836441993906  0.8258496891339450  0.3915718961838892
  0.8333333333333357  0.8398826504507688  0.3884733463803733
 -0.0005602124895248  0.0000000000000000  0.4630072546836820
  0.3333333333333357  0.0000000000000000  0.4609645375814612
  0.6672268791561893  0.0000000000000000  0.4630072546836820
 -0.0014483725157408  0.3347817058490763  0.4643142378729779
  0.3333333333333357  0.3338935458228606  0.4630072546836820
  0.6681150391824052  0.3347817058490763  0.4643142378729779
 -0.0014483725157408  0.6652182941509234  0.4643142378729779
  0.3333333333333357  0.6842589910451055  0.6095665871639554
  0.6686767670120332  0.6646565663212954  0.6098041820232400
  0.3333333333333357  0.0000000000000000  0.6925662168790345
 
  0.00000000E+00  0.00000000E+00  0.00000000E+00
  0.00000000E+00  0.00000000E+00  0.00000000E+00
  0.00000000E+00  0.00000000E+00  0.00000000E+00
  0.00000000E+00  0.00000000E+00  0.00000000E+00
  0.00000000E+00  0.00000000E+00  0.00000000E+00
  0.00000000E+00  0.00000000E+00  0.00000000E+00
  0.00000000E+00  0.00000000E+00  0.00000000E+00
  0.00000000E+00  0.00000000E+00  0.00000000E+00
  0.00000000E+00  0.00000000E+00  0.00000000E+00
  0.00000000E+00  0.00000000E+00  0.00000000E+00
  0.00000000E+00  0.00000000E+00  0.00000000E+00
  0.00000000E+00  0.00000000E+00  0.00000000E+00
  0.00000000E+00  0.00000000E+00  0.00000000E+00
  0.00000000E+00  0.00000000E+00  0.00000000E+00
  0.00000000E+00  0.00000000E+00  0.00000000E+00
  0.00000000E+00  0.00000000E+00  0.00000000E+00
  0.00000000E+00  0.00000000E+00  0.00000000E+00
  0.00000000E+00  0.00000000E+00  0.00000000E+00
  0.00000000E+00  0.00000000E+00  0.00000000E+00
  0.00000000E+00  0.00000000E+00  0.00000000E+00
  0.00000000E+00  0.00000000E+00  0.00000000E+00
  0.00000000E+00  0.00000000E+00  0.00000000E+00
  0.00000000E+00  0.00000000E+00  0.00000000E+00
  0.00000000E+00  0.00000000E+00  0.00000000E+00
  0.00000000E+00  0.00000000E+00  0.00000000E+00
  0.00000000E+00  0.00000000E+00  0.00000000E+00
  0.00000000E+00  0.00000000E+00  0.00000000E+00
  0.00000000E+00  0.00000000E+00  0.00000000E+00
  0.00000000E+00  0.00000000E+00  0.00000000E+00
  0.00000000E+00  0.00000000E+00  0.00000000E+00
  0.00000000E+00  0.00000000E+00  0.00000000E+00
  0.00000000E+00  0.00000000E+00  0.00000000E+00
  0.00000000E+00  0.00000000E+00  0.00000000E+00
  0.00000000E+00  0.00000000E+00  0.00000000E+00
  0.00000000E+00  0.00000000E+00  0.00000000E+00
  0.00000000E+00  0.00000000E+00  0.00000000E+00
  0.00000000E+00  0.00000000E+00  0.00000000E+00
