Pt  H                                   
   1.00000000000000     
     8.3219397077844786    0.0000000000000000    0.0000000000000000
     0.0000000000000000    8.3219397077844786    0.0000000000000000
     0.0000000000000000    0.0000000000000000   20.8844999999999992
   Pt   H 
    36     1
Direct
  0.1667128454156887  0.1666204879176399  0.3565728597964312
  0.8333333333333357  0.1672287028213115  0.5481925928585820
  0.1661046305120171  0.5000000000000000  0.5481925928585820
  0.5005620361546472  0.5000000000000000  0.5481925928585820
  0.8333333333333357  0.5000000000000000  0.5475397074389631
  0.1680160048704818  0.8346826715371534  0.5494839737045214
  0.4986506617961824  0.8346826715371534  0.5494839737045214
  0.4986506617961824  0.1653173284628468  0.5494839737045214
  0.8333333333333357  0.8327712971786884  0.5481925928585820
  0.3333333333333357 -0.0000000000000000  0.6542159268749592
  0.6656611237474537 -0.0000000000000000  0.6433703686602025
 -0.0011175196204217  0.3344508529537573  0.6437761062801937
  0.3333333333333357  0.3323277904141247  0.6433703686602025
  0.6677841862870860  0.3344508529537573  0.6437761062801937
 -0.0011175196204217  0.6655491470462426  0.6437761062801937
  0.0010055429192109 -0.0000000000000000  0.6433703686602025
  0.1680160048704818  0.1653173284628468  0.5494839737045214
  0.6672018575061720  0.6661314758271566  0.4507638930489483
  0.3333333333333357  0.6673574978217904  0.4523729731448239
  0.4999538212509755  0.1666204879176399  0.3565728597964312
  0.8333333333333357  0.1658586706955385  0.3561699378145299
  0.1674746626377901  0.5000000000000000  0.3561699378145299
  0.4991920040288742  0.5000000000000000  0.3561699378145299
  0.8333333333333357  0.5000000000000000  0.3542483400792418
  0.1667128454156887  0.8333795120823602  0.3565728597964312
  0.4999538212509755  0.8333795120823602  0.3565728597964312
  0.8333333333333357  0.8341413293044616  0.3561699378145299
  0.0006908311551262 -0.0000000000000000  0.4523729731448239
  0.3333333333333357 -0.0000000000000000  0.4517976902106747
  0.6659758355115382 -0.0000000000000000  0.4523729731448239
 -0.0005351908395077  0.3338685241728434  0.4507638930489483
  0.3333333333333357  0.3326425021782096  0.4523729731448239
  0.6672018575061720  0.3338685241728434  0.4507638930489483
 -0.0005351908395077  0.6661314758271566  0.4507638930489483
  0.3333333333333357  0.6676722095858750  0.6433703686602025
  0.6677841862870860  0.6655491470462426  0.6437761062801937
  0.3333333333333357 -0.0000000000000000  0.7289628453285992
 
  0.00000000E+00  0.00000000E+00  0.00000000E+00
  0.00000000E+00  0.00000000E+00  0.00000000E+00
  0.00000000E+00  0.00000000E+00  0.00000000E+00
  0.00000000E+00  0.00000000E+00  0.00000000E+00
  0.00000000E+00  0.00000000E+00  0.00000000E+00
  0.00000000E+00  0.00000000E+00  0.00000000E+00
  0.00000000E+00  0.00000000E+00  0.00000000E+00
  0.00000000E+00  0.00000000E+00  0.00000000E+00
  0.00000000E+00  0.00000000E+00  0.00000000E+00
  0.00000000E+00  0.00000000E+00  0.00000000E+00
  0.00000000E+00  0.00000000E+00  0.00000000E+00
  0.00000000E+00  0.00000000E+00  0.00000000E+00
  0.00000000E+00  0.00000000E+00  0.00000000E+00
  0.00000000E+00  0.00000000E+00  0.00000000E+00
  0.00000000E+00  0.00000000E+00  0.00000000E+00
  0.00000000E+00  0.00000000E+00  0.00000000E+00
  0.00000000E+00  0.00000000E+00  0.00000000E+00
  0.00000000E+00  0.00000000E+00  0.00000000E+00
  0.00000000E+00  0.00000000E+00  0.00000000E+00
  0.00000000E+00  0.00000000E+00  0.00000000E+00
  0.00000000E+00  0.00000000E+00  0.00000000E+00
  0.00000000E+00  0.00000000E+00  0.00000000E+00
  0.00000000E+00  0.00000000E+00  0.00000000E+00
  0.00000000E+00  0.00000000E+00  0.00000000E+00
  0.00000000E+00  0.00000000E+00  0.00000000E+00
  0.00000000E+00  0.00000000E+00  0.00000000E+00
  0.00000000E+00  0.00000000E+00  0.00000000E+00
  0.00000000E+00  0.00000000E+00  0.00000000E+00
  0.00000000E+00  0.00000000E+00  0.00000000E+00
  0.00000000E+00  0.00000000E+00  0.00000000E+00
  0.00000000E+00  0.00000000E+00  0.00000000E+00
  0.00000000E+00  0.00000000E+00  0.00000000E+00
  0.00000000E+00  0.00000000E+00  0.00000000E+00
  0.00000000E+00  0.00000000E+00  0.00000000E+00
  0.00000000E+00  0.00000000E+00  0.00000000E+00
  0.00000000E+00  0.00000000E+00  0.00000000E+00
  0.00000000E+00  0.00000000E+00  0.00000000E+00
