Ni  H                                   
   1.00000000000000     
     8.3219397077844786    0.0000000000000000    0.0000000000000000
     0.0000000000000000    8.3219397077844786    0.0000000000000000
     0.0000000000000000    0.0000000000000000   20.8844999999999992
   Ni   H 
    36     1
Direct
  0.1666666666666643  0.1666666666666643  0.4007998190282716
  0.8525014912616558  0.1666666666666643  0.5269488432965490
  0.1666666666666643  0.5118788775485998  0.5424396280369754
  0.4765486098626234  0.5151810881892189  0.5427634533579780
  0.8567847234707121  0.5151810881892189  0.5427634533579780
  0.1666666666666643  0.8214544557847359  0.5424396280369754
  0.4765486098626234  0.8181522451441168  0.5427634533579780
  0.4808318420716799  0.1666666666666643  0.5269488432965490
  0.8567847234707121  0.8181522451441168  0.5427634533579780
  0.3253591063020283  0.0135449283401895  0.6037258432582299
  0.6666666666666643  0.0061362519952650  0.5936869487327955
  0.0079742270313073  0.3197884049931462  0.6037258432582299
  0.3253591063020283  0.3197884049931462  0.6037258432582299
  0.6666666666666643  0.3271970813380707  0.5936869487327955
  0.0153064019831061  0.6666666666666643  0.6207768364319409
  0.0079742270313073  0.0135449283401895  0.6037258432582299
  0.1666666666666643  0.1666666666666643  0.5263562713461355
  0.6666666666666643  0.6666666666666643  0.4726128886448056
  0.3235807841167999  0.6666666666666643  0.4580548431088745
  0.5074422110313306  0.1666666666666643  0.4081092226042851
  0.8258911223020052  0.1666666666666643  0.4081092226042851
  0.1666666666666643  0.5076550209942227  0.3839325265214760
  0.5128868759960543  0.5088145154147846  0.3953194501204058
  0.8204464573372816  0.5088145154147846  0.3953194501204058
  0.1666666666666643  0.8256783123391130  0.3839325265214760
  0.5128868759960543  0.8245188179185510  0.3953194501204058
  0.8204464573372816  0.8245188179185510  0.3953194501204058
  0.0085224848858271 -0.0266258004995327  0.4606282568354079
  0.3248108484475086 -0.0266258004995327  0.4606282568354079
  0.6666666666666643 -0.0237524516796508  0.4737869759576245
  0.0085224848858271  0.3599591338328684  0.4606282568354079
  0.3248108484475086  0.3599591338328684  0.4606282568354079
  0.6666666666666643  0.3570857850129868  0.4737869759576245
  0.0097525492165357  0.6666666666666643  0.4580548431088745
  0.3180269313502295  0.6666666666666643  0.6207768364319409
  0.6666666666666643  0.6666666666666643  0.6055913543361346
  0.1666666666666643  0.6666666666666643  0.6709997771658107
 
  0.00000000E+00  0.00000000E+00  0.00000000E+00
  0.00000000E+00  0.00000000E+00  0.00000000E+00
  0.00000000E+00  0.00000000E+00  0.00000000E+00
  0.00000000E+00  0.00000000E+00  0.00000000E+00
  0.00000000E+00  0.00000000E+00  0.00000000E+00
  0.00000000E+00  0.00000000E+00  0.00000000E+00
  0.00000000E+00  0.00000000E+00  0.00000000E+00
  0.00000000E+00  0.00000000E+00  0.00000000E+00
  0.00000000E+00  0.00000000E+00  0.00000000E+00
  0.00000000E+00  0.00000000E+00  0.00000000E+00
  0.00000000E+00  0.00000000E+00  0.00000000E+00
  0.00000000E+00  0.00000000E+00  0.00000000E+00
  0.00000000E+00  0.00000000E+00  0.00000000E+00
  0.00000000E+00  0.00000000E+00  0.00000000E+00
  0.00000000E+00  0.00000000E+00  0.00000000E+00
  0.00000000E+00  0.00000000E+00  0.00000000E+00
  0.00000000E+00  0.00000000E+00  0.00000000E+00
  0.00000000E+00  0.00000000E+00  0.00000000E+00
  0.00000000E+00  0.00000000E+00  0.00000000E+00
  0.00000000E+00  0.00000000E+00  0.00000000E+00
  0.00000000E+00  0.00000000E+00  0.00000000E+00
  0.00000000E+00  0.00000000E+00  0.00000000E+00
  0.00000000E+00  0.00000000E+00  0.00000000E+00
  0.00000000E+00  0.00000000E+00  0.00000000E+00
  0.00000000E+00  0.00000000E+00  0.00000000E+00
  0.00000000E+00  0.00000000E+00  0.00000000E+00
  0.00000000E+00  0.00000000E+00  0.00000000E+00
  0.00000000E+00  0.00000000E+00  0.00000000E+00
  0.00000000E+00  0.00000000E+00  0.00000000E+00
  0.00000000E+00  0.00000000E+00  0.00000000E+00
  0.00000000E+00  0.00000000E+00  0.00000000E+00
  0.00000000E+00  0.00000000E+00  0.00000000E+00
  0.00000000E+00  0.00000000E+00  0.00000000E+00
  0.00000000E+00  0.00000000E+00  0.00000000E+00
  0.00000000E+00  0.00000000E+00  0.00000000E+00
  0.00000000E+00  0.00000000E+00  0.00000000E+00
  0.00000000E+00  0.00000000E+00  0.00000000E+00
