Fe  H                                   
   1.00000000000000     
     8.3219397077844786    0.0000000000000000    0.0000000000000000
     0.0000000000000000    8.3219397077844786    0.0000000000000000
     0.0000000000000000    0.0000000000000000   20.8844999999999992
   Fe   H 
    36     1
Direct
  0.1666666666666643  0.1666666666666643  0.3872592845031136
  0.8332912023889189  0.1666666666666643  0.5383973708392599
  0.1666666666666643  0.4998843155625094  0.5365303078442906
  0.5007845499610671  0.5020697890504031  0.5374102613266269
  0.8325487833722685  0.5020697890504031  0.5374102613266269
  0.1666666666666643  0.8334490177708263  0.5365303078442906
  0.5007845499610671  0.8312635442829325  0.5374102613266269
  0.5000421309444169  0.1666666666666643  0.5383973708392599
  0.8325487833722685  0.8312635442829325  0.5374102613266269
  0.3405150897813834 -0.0088329872272929  0.6092301098579647
  0.6666666666666643  0.0068406103365552  0.6129373941638785
 -0.0071817564480477  0.3421663205606285  0.6092301098579647
  0.3405150897813834  0.3421663205606285  0.6092301098579647
  0.6666666666666643  0.3264927229967804  0.6129373941638785
  0.0131602412864400  0.6666666666666643  0.6149499613799135
 -0.0071817564480477 -0.0088329872272929  0.6092301098579647
  0.1666666666666643  0.1666666666666643  0.5390136736186311
  0.6666666666666643  0.6666666666666643  0.4638026818079489
  0.3333852355099833  0.6666666666666643  0.4628569463259233
  0.4902137481084662  0.1666666666666643  0.3918326324496703
  0.8431195852248696  0.1666666666666643  0.3918326324496703
  0.1666666666666643  0.4901240170819773  0.3925870556415086
  0.5048563934876257  0.5011805415884937  0.3905598529140537
  0.8284769398457100  0.5011805415884937  0.3905598529140537
  0.1666666666666643  0.8432093162513584  0.3925870556415086
  0.5048563934876257  0.8321527917448421  0.3905598529140537
  0.8284769398457100  0.8321527917448421  0.3905598529140537
 -0.0002194525033424  0.0010018368964149  0.4645044050690519
  0.3335527858366781  0.0010018368964149  0.4645044050690519
  0.6666666666666643  0.0015771959762951  0.4638245103738760
 -0.0002194525033424  0.3323314964369208  0.4645044050690519
  0.3335527858366781  0.3323314964369208  0.4645044050690519
  0.6666666666666643  0.3317561373570406  0.4638245103738760
 -0.0000519021766474  0.6666666666666643  0.4628569463259233
  0.3201730920468956  0.6666666666666643  0.6149499613799135
  0.6666666666666643  0.6666666666666643  0.6089702363498617
  0.1666666666666643  0.6666666666666643  0.6704055477750518
 
  0.00000000E+00  0.00000000E+00  0.00000000E+00
  0.00000000E+00  0.00000000E+00  0.00000000E+00
  0.00000000E+00  0.00000000E+00  0.00000000E+00
  0.00000000E+00  0.00000000E+00  0.00000000E+00
  0.00000000E+00  0.00000000E+00  0.00000000E+00
  0.00000000E+00  0.00000000E+00  0.00000000E+00
  0.00000000E+00  0.00000000E+00  0.00000000E+00
  0.00000000E+00  0.00000000E+00  0.00000000E+00
  0.00000000E+00  0.00000000E+00  0.00000000E+00
  0.00000000E+00  0.00000000E+00  0.00000000E+00
  0.00000000E+00  0.00000000E+00  0.00000000E+00
  0.00000000E+00  0.00000000E+00  0.00000000E+00
  0.00000000E+00  0.00000000E+00  0.00000000E+00
  0.00000000E+00  0.00000000E+00  0.00000000E+00
  0.00000000E+00  0.00000000E+00  0.00000000E+00
  0.00000000E+00  0.00000000E+00  0.00000000E+00
  0.00000000E+00  0.00000000E+00  0.00000000E+00
  0.00000000E+00  0.00000000E+00  0.00000000E+00
  0.00000000E+00  0.00000000E+00  0.00000000E+00
  0.00000000E+00  0.00000000E+00  0.00000000E+00
  0.00000000E+00  0.00000000E+00  0.00000000E+00
  0.00000000E+00  0.00000000E+00  0.00000000E+00
  0.00000000E+00  0.00000000E+00  0.00000000E+00
  0.00000000E+00  0.00000000E+00  0.00000000E+00
  0.00000000E+00  0.00000000E+00  0.00000000E+00
  0.00000000E+00  0.00000000E+00  0.00000000E+00
  0.00000000E+00  0.00000000E+00  0.00000000E+00
  0.00000000E+00  0.00000000E+00  0.00000000E+00
  0.00000000E+00  0.00000000E+00  0.00000000E+00
  0.00000000E+00  0.00000000E+00  0.00000000E+00
  0.00000000E+00  0.00000000E+00  0.00000000E+00
  0.00000000E+00  0.00000000E+00  0.00000000E+00
  0.00000000E+00  0.00000000E+00  0.00000000E+00
  0.00000000E+00  0.00000000E+00  0.00000000E+00
  0.00000000E+00  0.00000000E+00  0.00000000E+00
  0.00000000E+00  0.00000000E+00  0.00000000E+00
  0.00000000E+00  0.00000000E+00  0.00000000E+00
