Rh  H                                   
   1.00000000000000     
     8.3219397077844786    0.0000000000000000    0.0000000000000000
     0.0000000000000000    8.3219397077844786    0.0000000000000000
     0.0000000000000000    0.0000000000000000   20.8844999999999992
   Rh   H 
    36     1
Direct
  0.1666666666666643  0.1669548760227413  0.3694111296522793
  0.8335224430405500  0.1668557763738787  0.5483738144513721
  0.1666666666666643  0.5000000000000000  0.5455116600040570
  0.5011476015900737  0.5000000000000000  0.5474831585911195
  0.8321857317432622  0.5000000000000000  0.5474831585911195
  0.1666666666666643  0.8344809349234092  0.5474831585911195
  0.4998108902927855  0.8331442236261214  0.5483738144513721
  0.4998108902927855  0.1668557763738787  0.5483738144513721
  0.8335224430405500  0.8331442236261214  0.5483738144513721
  0.3327944043425117 -0.0000000000000000  0.6342987984295777
  0.6666666666666643 -0.0000000000000000  0.6342651174418695
  0.0018448910127018  0.3351782243460376  0.6347399726084754
  0.3314884423206338  0.3351782243460376  0.6347399726084754
  0.6666666666666643  0.3338722623241597  0.6342987984295777
  0.0018448910127018  0.6648217756539625  0.6347399726084754
  0.0005389289908239 -0.0000000000000000  0.6342987984295777
  0.1666666666666643  0.1655190650765907  0.5474831585911195
  0.6666666666666643  0.6675814590003919  0.4558036375052664
  0.3338856033314748  0.6672189366648035  0.4559873959770691
  0.4995895836422511  0.1670770830244131  0.3692072276906908
  0.8337437496910844  0.1670770830244131  0.3692072276906908
  0.1666666666666643  0.5000000000000000  0.3695563541467521
  0.4997117906439231  0.5000000000000000  0.3694111296522793
  0.8336215426894129  0.5000000000000000  0.3694111296522793
  0.1666666666666643  0.8330451239772585  0.3694111296522793
  0.4995895836422511  0.8329229169755870  0.3692072276906908
  0.8337437496910844  0.8329229169755870  0.3692072276906908
 -0.0009147923337277 -0.0000000000000000  0.4558036375052664
  0.3342481256670633 -0.0000000000000000  0.4558036375052664
  0.6666666666666643 -0.0000000000000000  0.4550588566013016
 -0.0005522699981391  0.3327810633351966  0.4559873959770691
  0.3338856033314748  0.3327810633351966  0.4559873959770691
  0.6666666666666643  0.3324185409996081  0.4558036375052664
 -0.0005522699981391  0.6672189366648035  0.4559873959770691
  0.3314884423206338  0.6648217756539625  0.6347399726084754
  0.6666666666666643  0.6661277376758405  0.6342987984295777
  0.1666666666666643  0.5000000000000000  0.6626721426626129
 
  0.00000000E+00  0.00000000E+00  0.00000000E+00
  0.00000000E+00  0.00000000E+00  0.00000000E+00
  0.00000000E+00  0.00000000E+00  0.00000000E+00
  0.00000000E+00  0.00000000E+00  0.00000000E+00
  0.00000000E+00  0.00000000E+00  0.00000000E+00
  0.00000000E+00  0.00000000E+00  0.00000000E+00
  0.00000000E+00  0.00000000E+00  0.00000000E+00
  0.00000000E+00  0.00000000E+00  0.00000000E+00
  0.00000000E+00  0.00000000E+00  0.00000000E+00
  0.00000000E+00  0.00000000E+00  0.00000000E+00
  0.00000000E+00  0.00000000E+00  0.00000000E+00
  0.00000000E+00  0.00000000E+00  0.00000000E+00
  0.00000000E+00  0.00000000E+00  0.00000000E+00
  0.00000000E+00  0.00000000E+00  0.00000000E+00
  0.00000000E+00  0.00000000E+00  0.00000000E+00
  0.00000000E+00  0.00000000E+00  0.00000000E+00
  0.00000000E+00  0.00000000E+00  0.00000000E+00
  0.00000000E+00  0.00000000E+00  0.00000000E+00
  0.00000000E+00  0.00000000E+00  0.00000000E+00
  0.00000000E+00  0.00000000E+00  0.00000000E+00
  0.00000000E+00  0.00000000E+00  0.00000000E+00
  0.00000000E+00  0.00000000E+00  0.00000000E+00
  0.00000000E+00  0.00000000E+00  0.00000000E+00
  0.00000000E+00  0.00000000E+00  0.00000000E+00
  0.00000000E+00  0.00000000E+00  0.00000000E+00
  0.00000000E+00  0.00000000E+00  0.00000000E+00
  0.00000000E+00  0.00000000E+00  0.00000000E+00
  0.00000000E+00  0.00000000E+00  0.00000000E+00
  0.00000000E+00  0.00000000E+00  0.00000000E+00
  0.00000000E+00  0.00000000E+00  0.00000000E+00
  0.00000000E+00  0.00000000E+00  0.00000000E+00
  0.00000000E+00  0.00000000E+00  0.00000000E+00
  0.00000000E+00  0.00000000E+00  0.00000000E+00
  0.00000000E+00  0.00000000E+00  0.00000000E+00
  0.00000000E+00  0.00000000E+00  0.00000000E+00
  0.00000000E+00  0.00000000E+00  0.00000000E+00
  0.00000000E+00  0.00000000E+00  0.00000000E+00
