Pd  H                                   
   1.00000000000000     
     8.3219397077844786    0.0000000000000000    0.0000000000000000
     0.0000000000000000    8.3219397077844786    0.0000000000000000
     0.0000000000000000    0.0000000000000000   20.8844999999999992
   Pd   H 
    36     1
Direct
  0.1666666666666643  0.1666666666666643  0.3569950393459713
  0.8332492886897791  0.1666666666666643  0.5488832906434031
  0.1666666666666643  0.5005906319340545  0.5500710523819962
  0.4997346788188426  0.5002084173846502  0.5495659577610681
  0.8335986545144926  0.5002084173846502  0.5495659577610681
  0.1666666666666643  0.8327427013992813  0.5500710523819962
  0.4997346788188426  0.8331249159486855  0.5495659577610681
  0.5000840446435566  0.1666666666666643  0.5488832906434031
  0.8335986545144926  0.8331249159486855  0.5495659577610681
  0.3339020177704841  0.0011118510332584  0.6451731021325112
  0.6666666666666643  0.0003520443973734  0.6449350319049456
 -0.0005686844371482  0.3322214823000773  0.6451731021325112
  0.3339020177704841  0.3322214823000773  0.6451731021325112
  0.6666666666666643  0.3329812889359623  0.6449350319049456
 -0.0009681288297184  0.6666666666666643  0.6481858708734746
 -0.0005686844371482  0.0011118510332584  0.6451731021325112
  0.1666666666666643  0.1666666666666643  0.5488678238963995
  0.6666666666666643  0.6666666666666643  0.4533348200726696
  0.3331523230040574  0.6666666666666643  0.4530892236527524
  0.4995534004517686  0.1666666666666643  0.3567613906100249
  0.8337799328815673  0.1666666666666643  0.3567613906100249
  0.1666666666666643  0.5002026734070901  0.3568915219573287
  0.4997801427080256  0.5003613245587664  0.3568805558364704
  0.8335531906253102  0.5003613245587664  0.3568805558364704
  0.1666666666666643  0.8331306599262458  0.3568915219573287
  0.4997801427080256  0.8329720087745693  0.3568805558364704
  0.8335531906253102  0.8329720087745693  0.3568805558364704
  0.0000981265055447 -0.0004276154596100  0.4528427842855689
  0.3332352068277911 -0.0004276154596100  0.4528427842855689
  0.6666666666666643  0.0000304655548382  0.4520450665948336
  0.0000981265055447  0.3337609487929456  0.4528427842855689
  0.3332352068277911  0.3337609487929456  0.4528427842855689
  0.6666666666666643  0.3333028677784974  0.4520450665948336
  0.0001810103292783  0.6666666666666643  0.4530892236527524
  0.3343014621630541  0.6666666666666643  0.6481858708734746
  0.6666666666666643  0.6666666666666643  0.6454354414419470
  0.1666666666666643  0.6666666666666643  0.6957906350525109
 
  0.00000000E+00  0.00000000E+00  0.00000000E+00
  0.00000000E+00  0.00000000E+00  0.00000000E+00
  0.00000000E+00  0.00000000E+00  0.00000000E+00
  0.00000000E+00  0.00000000E+00  0.00000000E+00
  0.00000000E+00  0.00000000E+00  0.00000000E+00
  0.00000000E+00  0.00000000E+00  0.00000000E+00
  0.00000000E+00  0.00000000E+00  0.00000000E+00
  0.00000000E+00  0.00000000E+00  0.00000000E+00
  0.00000000E+00  0.00000000E+00  0.00000000E+00
  0.00000000E+00  0.00000000E+00  0.00000000E+00
  0.00000000E+00  0.00000000E+00  0.00000000E+00
  0.00000000E+00  0.00000000E+00  0.00000000E+00
  0.00000000E+00  0.00000000E+00  0.00000000E+00
  0.00000000E+00  0.00000000E+00  0.00000000E+00
  0.00000000E+00  0.00000000E+00  0.00000000E+00
  0.00000000E+00  0.00000000E+00  0.00000000E+00
  0.00000000E+00  0.00000000E+00  0.00000000E+00
  0.00000000E+00  0.00000000E+00  0.00000000E+00
  0.00000000E+00  0.00000000E+00  0.00000000E+00
  0.00000000E+00  0.00000000E+00  0.00000000E+00
  0.00000000E+00  0.00000000E+00  0.00000000E+00
  0.00000000E+00  0.00000000E+00  0.00000000E+00
  0.00000000E+00  0.00000000E+00  0.00000000E+00
  0.00000000E+00  0.00000000E+00  0.00000000E+00
  0.00000000E+00  0.00000000E+00  0.00000000E+00
  0.00000000E+00  0.00000000E+00  0.00000000E+00
  0.00000000E+00  0.00000000E+00  0.00000000E+00
  0.00000000E+00  0.00000000E+00  0.00000000E+00
  0.00000000E+00  0.00000000E+00  0.00000000E+00
  0.00000000E+00  0.00000000E+00  0.00000000E+00
  0.00000000E+00  0.00000000E+00  0.00000000E+00
  0.00000000E+00  0.00000000E+00  0.00000000E+00
  0.00000000E+00  0.00000000E+00  0.00000000E+00
  0.00000000E+00  0.00000000E+00  0.00000000E+00
  0.00000000E+00  0.00000000E+00  0.00000000E+00
  0.00000000E+00  0.00000000E+00  0.00000000E+00
  0.00000000E+00  0.00000000E+00  0.00000000E+00
