Ru                                      
   1.00000000000000     
     8.3219397077844786    0.0000000000000000    0.0000000000000000
     0.0000000000000000    8.3219397077844786    0.0000000000000000
     0.0000000000000000    0.0000000000000000   20.8844999999999992
   Ru
    36
Direct
  0.1666666666666643  0.1666666666666643  0.3716017132276503
  0.8333333333333357  0.1666666666666643  0.5498502842401605
  0.1666666666666643  0.5000000000000000  0.5498502842401605
  0.5000000000000000  0.5000000000000000  0.5498502842401605
  0.8333333333333357  0.5000000000000000  0.5498502842401605
  0.1666666666666643  0.8333333333333357  0.5498502842401605
  0.5000000000000000  0.8333333333333357  0.5498502842401605
  0.5000000000000000  0.1666666666666643  0.5498502842401605
  0.8333333333333357  0.8333333333333357  0.5498502842401605
  0.3333333333333357  0.0000000000000000  0.6283982867723498
  0.6666666666666643  0.0000000000000000  0.6283982867723498
 -0.0000000000000000  0.3333333333333357  0.6283982867723498
  0.3333333333333357  0.3333333333333357  0.6283982867723498
  0.6666666666666643  0.3333333333333357  0.6283982867723498
 -0.0000000000000000  0.6666666666666643  0.6283982867723498
  0.0000000000000000  0.0000000000000000  0.6283982867723498
  0.1666666666666643  0.1666666666666643  0.5498502842401605
  0.6666666666666643  0.6666666666666643  0.4501497157598396
  0.3333333333333357  0.6666666666666643  0.4501497157598396
  0.5000000000000000  0.1666666666666643  0.3716017132276503
  0.8333333333333357  0.1666666666666643  0.3716017132276503
  0.1666666666666643  0.5000000000000000  0.3716017132276503
  0.5000000000000000  0.5000000000000000  0.3716017132276503
  0.8333333333333357  0.5000000000000000  0.3716017132276503
  0.1666666666666643  0.8333333333333357  0.3716017132276503
  0.5000000000000000  0.8333333333333357  0.3716017132276503
  0.8333333333333357  0.8333333333333357  0.3716017132276503
  0.0000000000000000  0.0000000000000000  0.4501497157598396
  0.3333333333333357  0.0000000000000000  0.4501497157598396
  0.6666666666666643 -0.0000000000000000  0.4501497157598396
  0.0000000000000000  0.3333333333333357  0.4501497157598396
  0.3333333333333357  0.3333333333333357  0.4501497157598396
  0.6666666666666643  0.3333333333333357  0.4501497157598396
  0.0000000000000000  0.6666666666666643  0.4501497157598396
  0.3333333333333357  0.6666666666666643  0.6283982867723498
  0.6666666666666643  0.6666666666666643  0.6283982867723498
 
  0.00000000E+00  0.00000000E+00  0.00000000E+00
  0.00000000E+00  0.00000000E+00  0.00000000E+00
  0.00000000E+00  0.00000000E+00  0.00000000E+00
  0.00000000E+00  0.00000000E+00  0.00000000E+00
  0.00000000E+00  0.00000000E+00  0.00000000E+00
  0.00000000E+00  0.00000000E+00  0.00000000E+00
  0.00000000E+00  0.00000000E+00  0.00000000E+00
  0.00000000E+00  0.00000000E+00  0.00000000E+00
  0.00000000E+00  0.00000000E+00  0.00000000E+00
  0.00000000E+00  0.00000000E+00  0.00000000E+00
  0.00000000E+00  0.00000000E+00  0.00000000E+00
  0.00000000E+00  0.00000000E+00  0.00000000E+00
  0.00000000E+00  0.00000000E+00  0.00000000E+00
  0.00000000E+00  0.00000000E+00  0.00000000E+00
  0.00000000E+00  0.00000000E+00  0.00000000E+00
  0.00000000E+00  0.00000000E+00  0.00000000E+00
  0.00000000E+00  0.00000000E+00  0.00000000E+00
  0.00000000E+00  0.00000000E+00  0.00000000E+00
  0.00000000E+00  0.00000000E+00  0.00000000E+00
  0.00000000E+00  0.00000000E+00  0.00000000E+00
  0.00000000E+00  0.00000000E+00  0.00000000E+00
  0.00000000E+00  0.00000000E+00  0.00000000E+00
  0.00000000E+00  0.00000000E+00  0.00000000E+00
  0.00000000E+00  0.00000000E+00  0.00000000E+00
  0.00000000E+00  0.00000000E+00  0.00000000E+00
  0.00000000E+00  0.00000000E+00  0.00000000E+00
  0.00000000E+00  0.00000000E+00  0.00000000E+00
  0.00000000E+00  0.00000000E+00  0.00000000E+00
  0.00000000E+00  0.00000000E+00  0.00000000E+00
  0.00000000E+00  0.00000000E+00  0.00000000E+00
  0.00000000E+00  0.00000000E+00  0.00000000E+00
  0.00000000E+00  0.00000000E+00  0.00000000E+00
  0.00000000E+00  0.00000000E+00  0.00000000E+00
  0.00000000E+00  0.00000000E+00  0.00000000E+00
  0.00000000E+00  0.00000000E+00  0.00000000E+00
  0.00000000E+00  0.00000000E+00  0.00000000E+00
