Rh                                      
   1.00000000000000     
     8.3219397077844786    0.0000000000000000    0.0000000000000000
     0.0000000000000000    8.3219397077844786    0.0000000000000000
     0.0000000000000000    0.0000000000000000   20.8844999999999992
   Rh
    36
Direct
  0.1666666666666643  0.1666666666666643  0.3674801311671604
  0.8333333333333357  0.1666666666666643  0.5459410088151160
  0.1666666666666643  0.5000000000000000  0.5459410088151160
  0.5000000000000000  0.5000000000000000  0.5459410088151160
  0.8333333333333357  0.5000000000000000  0.5459410088151160
  0.1666666666666643  0.8333333333333357  0.5459410088151160
  0.5000000000000000  0.8333333333333357  0.5459410088151160
  0.5000000000000000  0.1666666666666643  0.5459410088151160
  0.8333333333333357  0.8333333333333357  0.5459410088151160
  0.3333333333333357 -0.0000000000000000  0.6325198688328397
  0.6666666666666643  0.0000000000000000  0.6325198688328397
 -0.0000000000000000  0.3333333333333357  0.6325198688328397
  0.3333333333333357  0.3333333333333357  0.6325198688328397
  0.6666666666666643  0.3333333333333357  0.6325198688328397
  0.0000000000000000  0.6666666666666643  0.6325198688328397
 -0.0000000000000000  0.0000000000000000  0.6325198688328397
  0.1666666666666643  0.1666666666666643  0.5459410088151160
  0.6666666666666643  0.6666666666666643  0.4540589911848841
  0.3333333333333357  0.6666666666666643  0.4540589911848841
  0.5000000000000000  0.1666666666666643  0.3674801311671604
  0.8333333333333357  0.1666666666666643  0.3674801311671604
  0.1666666666666643  0.5000000000000000  0.3674801311671604
  0.5000000000000000  0.5000000000000000  0.3674801311671604
  0.8333333333333357  0.5000000000000000  0.3674801311671604
  0.1666666666666643  0.8333333333333357  0.3674801311671604
  0.5000000000000000  0.8333333333333357  0.3674801311671604
  0.8333333333333357  0.8333333333333357  0.3674801311671604
 -0.0000000000000000 -0.0000000000000000  0.4540589911848841
  0.3333333333333357  0.0000000000000000  0.4540589911848841
  0.6666666666666643  0.0000000000000000  0.4540589911848841
 -0.0000000000000000  0.3333333333333357  0.4540589911848841
  0.3333333333333357  0.3333333333333357  0.4540589911848841
  0.6666666666666643  0.3333333333333357  0.4540589911848841
 -0.0000000000000000  0.6666666666666643  0.4540589911848841
  0.3333333333333357  0.6666666666666643  0.6325198688328397
  0.6666666666666643  0.6666666666666643  0.6325198688328397
 
  0.00000000E+00  0.00000000E+00  0.00000000E+00
  0.00000000E+00  0.00000000E+00  0.00000000E+00
  0.00000000E+00  0.00000000E+00  0.00000000E+00
  0.00000000E+00  0.00000000E+00  0.00000000E+00
  0.00000000E+00  0.00000000E+00  0.00000000E+00
  0.00000000E+00  0.00000000E+00  0.00000000E+00
  0.00000000E+00  0.00000000E+00  0.00000000E+00
  0.00000000E+00  0.00000000E+00  0.00000000E+00
  0.00000000E+00  0.00000000E+00  0.00000000E+00
  0.00000000E+00  0.00000000E+00  0.00000000E+00
  0.00000000E+00  0.00000000E+00  0.00000000E+00
  0.00000000E+00  0.00000000E+00  0.00000000E+00
  0.00000000E+00  0.00000000E+00  0.00000000E+00
  0.00000000E+00  0.00000000E+00  0.00000000E+00
  0.00000000E+00  0.00000000E+00  0.00000000E+00
  0.00000000E+00  0.00000000E+00  0.00000000E+00
  0.00000000E+00  0.00000000E+00  0.00000000E+00
  0.00000000E+00  0.00000000E+00  0.00000000E+00
  0.00000000E+00  0.00000000E+00  0.00000000E+00
  0.00000000E+00  0.00000000E+00  0.00000000E+00
  0.00000000E+00  0.00000000E+00  0.00000000E+00
  0.00000000E+00  0.00000000E+00  0.00000000E+00
  0.00000000E+00  0.00000000E+00  0.00000000E+00
  0.00000000E+00  0.00000000E+00  0.00000000E+00
  0.00000000E+00  0.00000000E+00  0.00000000E+00
  0.00000000E+00  0.00000000E+00  0.00000000E+00
  0.00000000E+00  0.00000000E+00  0.00000000E+00
  0.00000000E+00  0.00000000E+00  0.00000000E+00
  0.00000000E+00  0.00000000E+00  0.00000000E+00
  0.00000000E+00  0.00000000E+00  0.00000000E+00
  0.00000000E+00  0.00000000E+00  0.00000000E+00
  0.00000000E+00  0.00000000E+00  0.00000000E+00
  0.00000000E+00  0.00000000E+00  0.00000000E+00
  0.00000000E+00  0.00000000E+00  0.00000000E+00
  0.00000000E+00  0.00000000E+00  0.00000000E+00
  0.00000000E+00  0.00000000E+00  0.00000000E+00
