Co                                      
   1.00000000000000     
     8.3219397077844786    0.0000000000000000    0.0000000000000000
     0.0000000000000000    8.3219397077844786    0.0000000000000000
     0.0000000000000000    0.0000000000000000   20.8844999999999992
   Co
    36
Direct
  0.1666666666666643  0.1666666666666643  0.3965188519585138
  0.8333333333333357  0.1666666666666643  0.5389088969650840
  0.1666666666666643  0.5000000000000000  0.5389088969650840
  0.5000000000000000  0.5000000000000000  0.5389088969650840
  0.8333333333333357  0.5000000000000000  0.5389088969650840
  0.1666666666666643  0.8333333333333357  0.5389088969650839
  0.5000000000000000  0.8333333333333357  0.5389088969650839
  0.5000000000000000  0.1666666666666643  0.5389088969650840
  0.8333333333333357  0.8333333333333357  0.5389088969650840
  0.3333333333333357 -0.0000000000000000  0.6034811480414861
  0.6666666666666643  0.0000000000000000  0.6034811480414861
  0.0000000000000000  0.3333333333333357  0.6034811480414861
  0.3333333333333357  0.3333333333333357  0.6034811480414861
  0.6666666666666643  0.3333333333333357  0.6034811480414861
  0.0000000000000000  0.6666666666666643  0.6034811480414861
 -0.0000000000000000  0.0000000000000000  0.6034811480414861
  0.1666666666666643  0.1666666666666643  0.5389088969650840
  0.6666666666666643  0.6666666666666643  0.4610911030349161
  0.3333333333333357  0.6666666666666643  0.4610911030349161
  0.5000000000000000  0.1666666666666643  0.3965188519585138
  0.8333333333333357  0.1666666666666643  0.3965188519585138
  0.1666666666666643  0.5000000000000000  0.3965188519585138
  0.5000000000000000  0.5000000000000000  0.3965188519585138
  0.8333333333333357  0.5000000000000000  0.3965188519585138
  0.1666666666666643  0.8333333333333357  0.3965188519585138
  0.5000000000000000  0.8333333333333357  0.3965188519585138
  0.8333333333333357  0.8333333333333357  0.3965188519585138
 -0.0000000000000000 -0.0000000000000000  0.4610911030349161
  0.3333333333333357  0.0000000000000000  0.4610911030349161
  0.6666666666666643  0.0000000000000000  0.4610911030349161
 -0.0000000000000000  0.3333333333333357  0.4610911030349161
  0.3333333333333357  0.3333333333333357  0.4610911030349161
  0.6666666666666643  0.3333333333333357  0.4610911030349161
 -0.0000000000000000  0.6666666666666643  0.4610911030349161
  0.3333333333333357  0.6666666666666643  0.6034811480414861
  0.6666666666666643  0.6666666666666643  0.6034811480414861
 
  0.00000000E+00  0.00000000E+00  0.00000000E+00
  0.00000000E+00  0.00000000E+00  0.00000000E+00
  0.00000000E+00  0.00000000E+00  0.00000000E+00
  0.00000000E+00  0.00000000E+00  0.00000000E+00
  0.00000000E+00  0.00000000E+00  0.00000000E+00
  0.00000000E+00  0.00000000E+00  0.00000000E+00
  0.00000000E+00  0.00000000E+00  0.00000000E+00
  0.00000000E+00  0.00000000E+00  0.00000000E+00
  0.00000000E+00  0.00000000E+00  0.00000000E+00
  0.00000000E+00  0.00000000E+00  0.00000000E+00
  0.00000000E+00  0.00000000E+00  0.00000000E+00
  0.00000000E+00  0.00000000E+00  0.00000000E+00
  0.00000000E+00  0.00000000E+00  0.00000000E+00
  0.00000000E+00  0.00000000E+00  0.00000000E+00
  0.00000000E+00  0.00000000E+00  0.00000000E+00
  0.00000000E+00  0.00000000E+00  0.00000000E+00
  0.00000000E+00  0.00000000E+00  0.00000000E+00
  0.00000000E+00  0.00000000E+00  0.00000000E+00
  0.00000000E+00  0.00000000E+00  0.00000000E+00
  0.00000000E+00  0.00000000E+00  0.00000000E+00
  0.00000000E+00  0.00000000E+00  0.00000000E+00
  0.00000000E+00  0.00000000E+00  0.00000000E+00
  0.00000000E+00  0.00000000E+00  0.00000000E+00
  0.00000000E+00  0.00000000E+00  0.00000000E+00
  0.00000000E+00  0.00000000E+00  0.00000000E+00
  0.00000000E+00  0.00000000E+00  0.00000000E+00
  0.00000000E+00  0.00000000E+00  0.00000000E+00
  0.00000000E+00  0.00000000E+00  0.00000000E+00
  0.00000000E+00  0.00000000E+00  0.00000000E+00
  0.00000000E+00  0.00000000E+00  0.00000000E+00
  0.00000000E+00  0.00000000E+00  0.00000000E+00
  0.00000000E+00  0.00000000E+00  0.00000000E+00
  0.00000000E+00  0.00000000E+00  0.00000000E+00
  0.00000000E+00  0.00000000E+00  0.00000000E+00
  0.00000000E+00  0.00000000E+00  0.00000000E+00
  0.00000000E+00  0.00000000E+00  0.00000000E+00
