Ni  H                                   
   1.00000000000000     
     8.3219397077844786    0.0000000000000000    0.0000000000000000
     0.0000000000000000    8.3219397077844786    0.0000000000000000
     0.0000000000000000    0.0000000000000000   20.8844999999999992
   Ni   H 
    36     1
Direct
  0.1666666666666643  0.1541093128124898  0.3937503795686176
  0.8562546282615885  0.1895879615949169  0.5366093357732886
  0.1666666666666643  0.5000000000000000  0.5386264276538655
  0.4750605918778010  0.5000000000000000  0.5384894846151335
  0.8582727414555349  0.5000000000000000  0.5384894846151335
  0.1666666666666643  0.8083939252111365  0.5384894846151335
  0.4770787050717474  0.8104120384050829  0.5366093357732886
  0.4770787050717474  0.1895879615949169  0.5366093357732886
  0.8562546282615885  0.8104120384050829  0.5366093357732886
  0.3243332050396647  0.0000000000000000  0.6001955492632177
  0.6666666666666643  0.0000000000000000  0.5948463412843804
  0.0101054079553659  0.3434387412887016  0.6160821619405860
  0.3232279253779698  0.3434387412887017  0.6160821619405860
  0.6666666666666643  0.3423334616270067  0.6001955492632177
  0.0101054079553659  0.6565612587112988  0.6160821619405860
  0.0090001282936710  0.0000000000000000  0.6001955492632177
  0.1666666666666643  0.1916060747888632  0.5384894846151335
  0.6666666666666643  0.6538429813719030  0.4708190934532350
  0.3202872224351454  0.6536205557684742  0.4549121566064577
  0.5076760066390468  0.1589906600276180  0.4065137881864931
  0.8256573266942889  0.1589906600276180  0.4065137881864931
  0.1666666666666643  0.5000000000000000  0.3789184512412666
  0.5125573538541744  0.5000000000000000  0.3937503795686176
  0.8207759794791613  0.5000000000000000  0.3937503795686176
  0.1666666666666643  0.8458906871875101  0.3937503795686176
  0.5076760066390468  0.8410093399723825  0.4065137881864931
  0.8256573266942889  0.8410093399723825  0.4065137881864931
  0.0128236852947616  0.0000000000000000  0.4708190934532350
  0.3205096480385742  0.0000000000000000  0.4708190934532350
  0.6666666666666643  0.0000000000000000  0.4809447015319684
  0.0130461108981902  0.3463794442315260  0.4549121566064577
  0.3202872224351454  0.3463794442315260  0.4549121566064577
  0.6666666666666643  0.3461570186280972  0.4708190934532350
  0.0130461108981902  0.6536205557684742  0.4549121566064577
  0.3232279253779698  0.6565612587112988  0.6160821619405860
  0.6666666666666643  0.6576665383729934  0.6001955492632177
  0.1666666666666643  0.5000000000000000  0.6387560548506885
 
  0.00000000E+00  0.00000000E+00  0.00000000E+00
  0.00000000E+00  0.00000000E+00  0.00000000E+00
  0.00000000E+00  0.00000000E+00  0.00000000E+00
  0.00000000E+00  0.00000000E+00  0.00000000E+00
  0.00000000E+00  0.00000000E+00  0.00000000E+00
  0.00000000E+00  0.00000000E+00  0.00000000E+00
  0.00000000E+00  0.00000000E+00  0.00000000E+00
  0.00000000E+00  0.00000000E+00  0.00000000E+00
  0.00000000E+00  0.00000000E+00  0.00000000E+00
  0.00000000E+00  0.00000000E+00  0.00000000E+00
  0.00000000E+00  0.00000000E+00  0.00000000E+00
  0.00000000E+00  0.00000000E+00  0.00000000E+00
  0.00000000E+00  0.00000000E+00  0.00000000E+00
  0.00000000E+00  0.00000000E+00  0.00000000E+00
  0.00000000E+00  0.00000000E+00  0.00000000E+00
  0.00000000E+00  0.00000000E+00  0.00000000E+00
  0.00000000E+00  0.00000000E+00  0.00000000E+00
  0.00000000E+00  0.00000000E+00  0.00000000E+00
  0.00000000E+00  0.00000000E+00  0.00000000E+00
  0.00000000E+00  0.00000000E+00  0.00000000E+00
  0.00000000E+00  0.00000000E+00  0.00000000E+00
  0.00000000E+00  0.00000000E+00  0.00000000E+00
  0.00000000E+00  0.00000000E+00  0.00000000E+00
  0.00000000E+00  0.00000000E+00  0.00000000E+00
  0.00000000E+00  0.00000000E+00  0.00000000E+00
  0.00000000E+00  0.00000000E+00  0.00000000E+00
  0.00000000E+00  0.00000000E+00  0.00000000E+00
  0.00000000E+00  0.00000000E+00  0.00000000E+00
  0.00000000E+00  0.00000000E+00  0.00000000E+00
  0.00000000E+00  0.00000000E+00  0.00000000E+00
  0.00000000E+00  0.00000000E+00  0.00000000E+00
  0.00000000E+00  0.00000000E+00  0.00000000E+00
  0.00000000E+00  0.00000000E+00  0.00000000E+00
  0.00000000E+00  0.00000000E+00  0.00000000E+00
  0.00000000E+00  0.00000000E+00  0.00000000E+00
  0.00000000E+00  0.00000000E+00  0.00000000E+00
  0.00000000E+00  0.00000000E+00  0.00000000E+00
