Ir  H                                   
   1.00000000000000     
     8.3219397077844786    0.0000000000000000    0.0000000000000000
     0.0000000000000000    8.3219397077844786    0.0000000000000000
     0.0000000000000000    0.0000000000000000   20.8844999999999992
   Ir   H 
    36     1
Direct
  0.1666666666666643  0.1670299518933264  0.3669163893090129
  0.8338744260683579  0.1672077594016866  0.5495877377857065
  0.1666666666666643  0.5000000000000000  0.5463200966897791
  0.5007417609522999  0.5000000000000000  0.5486369189193510
  0.8325915723810359  0.5000000000000000  0.5486369189193510
  0.1666666666666643  0.8340750942856355  0.5486369189193510
  0.4994589072649776  0.8327922405983135  0.5495877377857065
  0.4994589072649776  0.1672077594016866  0.5495877377857065
  0.8338744260683579  0.8327922405983135  0.5495877377857065
  0.3323793318558970  0.0000000000000000  0.6363620330626057
  0.6666666666666643  0.0000000000000000  0.6362911996107924
  0.0013810001405374  0.3347143334738731  0.6367456080064728
  0.3319523331927983  0.3347143334738731  0.6367456080064728
  0.6666666666666643  0.3342873348107744  0.6363620330626057
  0.0013810001405374  0.6652856665261270  0.6367456080064728
  0.0009540014774387  0.0000000000000000  0.6363620330626057
  0.1666666666666643  0.1659249057143644  0.5486369189193510
  0.6666666666666643  0.6674627997976065  0.4540453027744334
  0.3340637493218455  0.6673970826551739  0.4543889203510043
  0.4998194658031293  0.1668472008635351  0.3667264944230854
  0.8335138675302066  0.1668472008635351  0.3667264944230854
  0.1666666666666643  0.5000000000000000  0.3671726861302483
  0.4996367147733377  0.5000000000000000  0.3669163893090129
  0.8336966185599980  0.5000000000000000  0.3669163893090129
  0.1666666666666643  0.8329700481066734  0.3669163893090129
  0.4998194658031293  0.8331527991364648  0.3667264944230854
  0.8335138675302066  0.8331527991364648  0.3667264944230854
 -0.0007961331309422  0.0000000000000000  0.4540453027744334
  0.3341294664642779  0.0000000000000000  0.4540453027744334
  0.6666666666666643  0.0000000000000000  0.4540819431763354
 -0.0007304159885097  0.3326029173448259  0.4543889203510043
  0.3340637493218455  0.3326029173448259  0.4543889203510043
  0.6666666666666643  0.3325372002023935  0.4540453027744334
 -0.0007304159885097  0.6673970826551739  0.4543889203510043
  0.3319523331927983  0.6652856665261270  0.6367456080064728
  0.6666666666666643  0.6657126651892256  0.6363620330626057
  0.1666666666666643  0.5000000000000000  0.6728415682192902
 
  0.00000000E+00  0.00000000E+00  0.00000000E+00
  0.00000000E+00  0.00000000E+00  0.00000000E+00
  0.00000000E+00  0.00000000E+00  0.00000000E+00
  0.00000000E+00  0.00000000E+00  0.00000000E+00
  0.00000000E+00  0.00000000E+00  0.00000000E+00
  0.00000000E+00  0.00000000E+00  0.00000000E+00
  0.00000000E+00  0.00000000E+00  0.00000000E+00
  0.00000000E+00  0.00000000E+00  0.00000000E+00
  0.00000000E+00  0.00000000E+00  0.00000000E+00
  0.00000000E+00  0.00000000E+00  0.00000000E+00
  0.00000000E+00  0.00000000E+00  0.00000000E+00
  0.00000000E+00  0.00000000E+00  0.00000000E+00
  0.00000000E+00  0.00000000E+00  0.00000000E+00
  0.00000000E+00  0.00000000E+00  0.00000000E+00
  0.00000000E+00  0.00000000E+00  0.00000000E+00
  0.00000000E+00  0.00000000E+00  0.00000000E+00
  0.00000000E+00  0.00000000E+00  0.00000000E+00
  0.00000000E+00  0.00000000E+00  0.00000000E+00
  0.00000000E+00  0.00000000E+00  0.00000000E+00
  0.00000000E+00  0.00000000E+00  0.00000000E+00
  0.00000000E+00  0.00000000E+00  0.00000000E+00
  0.00000000E+00  0.00000000E+00  0.00000000E+00
  0.00000000E+00  0.00000000E+00  0.00000000E+00
  0.00000000E+00  0.00000000E+00  0.00000000E+00
  0.00000000E+00  0.00000000E+00  0.00000000E+00
  0.00000000E+00  0.00000000E+00  0.00000000E+00
  0.00000000E+00  0.00000000E+00  0.00000000E+00
  0.00000000E+00  0.00000000E+00  0.00000000E+00
  0.00000000E+00  0.00000000E+00  0.00000000E+00
  0.00000000E+00  0.00000000E+00  0.00000000E+00
  0.00000000E+00  0.00000000E+00  0.00000000E+00
  0.00000000E+00  0.00000000E+00  0.00000000E+00
  0.00000000E+00  0.00000000E+00  0.00000000E+00
  0.00000000E+00  0.00000000E+00  0.00000000E+00
  0.00000000E+00  0.00000000E+00  0.00000000E+00
  0.00000000E+00  0.00000000E+00  0.00000000E+00
  0.00000000E+00  0.00000000E+00  0.00000000E+00
