Pt  H                                   
   1.00000000000000     
     8.3219397077844786    0.0000000000000000    0.0000000000000000
     0.0000000000000000    8.3219397077844786    0.0000000000000000
     0.0000000000000000    0.0000000000000000   20.8844999999999992
   Pt   H 
    36     1
Direct
  0.1666666666666643  0.1666666666666643  0.3568428663743864
  0.8330227934649842  0.1666666666666643  0.5481596704298752
  0.1666666666666643  0.5006940682605318  0.5506387875076322
  0.4995607072994633  0.5002934592616669  0.5498977353263642
  0.8337726260338727  0.5002934592616669  0.5498977353263642
  0.1666666666666643  0.8326392650728039  0.5506387875076322
  0.4995607072994633  0.8330398740716688  0.5498977353263642
  0.5003105398683516  0.1666666666666643  0.5481596704298752
  0.8337726260338727  0.8330398740716688  0.5498977353263642
  0.3340175860399022  0.0020540901405728  0.6444171824633437
  0.6666666666666643  0.0013608165275021  0.6443502909631581
 -0.0006842527065667  0.3312792431927630  0.6444171824633437
  0.3340175860399022  0.3312792431927630  0.6444171824633437
  0.6666666666666643  0.3319725168058336  0.6443502909631581
 -0.0030111028752218  0.6666666666666643  0.6491500871090842
 -0.0006842527065667  0.0020540901405728  0.6444171824633437
  0.1666666666666643  0.1666666666666643  0.5483863753499095
  0.6666666666666643  0.6666666666666643  0.4534203887070144
  0.3331249911284459  0.6666666666666643  0.4534928017040579
  0.4991720862349731  0.1666666666666643  0.3559365611437262
  0.8341612470983625  0.1666666666666643  0.3559365611437262
  0.1666666666666643  0.5005565678591072  0.3576194944520967
  0.4998421781967707  0.5008301634828873  0.3573671146352964
  0.8334911551365650  0.5008301634828873  0.3573671146352964
  0.1666666666666643  0.8327767654742284  0.3576194944520967
  0.4998421781967707  0.8325031698504483  0.3573671146352964
  0.8334911551365650  0.8325031698504483  0.3573671146352964
 -0.0002819868948076 -0.0003409395515650  0.4522897865410113
  0.3336153202281433 -0.0003409395515650  0.4522897865410113
  0.6666666666666643  0.0004777767800781  0.4513282776179450
 -0.0002819868948076  0.3336742728849006  0.4522897865410113
  0.3336153202281433  0.3336742728849006  0.4522897865410113
  0.6666666666666643  0.3328555565532576  0.4513282776179450
  0.0002083422048898  0.6666666666666643  0.4534928017040579
  0.3363444362085574  0.6666666666666643  0.6491500871090842
  0.6666666666666643  0.6666666666666643  0.6446627828372216
  0.1666666666666643  0.6666666666666643  0.6990237001776229
 
  0.00000000E+00  0.00000000E+00  0.00000000E+00
  0.00000000E+00  0.00000000E+00  0.00000000E+00
  0.00000000E+00  0.00000000E+00  0.00000000E+00
  0.00000000E+00  0.00000000E+00  0.00000000E+00
  0.00000000E+00  0.00000000E+00  0.00000000E+00
  0.00000000E+00  0.00000000E+00  0.00000000E+00
  0.00000000E+00  0.00000000E+00  0.00000000E+00
  0.00000000E+00  0.00000000E+00  0.00000000E+00
  0.00000000E+00  0.00000000E+00  0.00000000E+00
  0.00000000E+00  0.00000000E+00  0.00000000E+00
  0.00000000E+00  0.00000000E+00  0.00000000E+00
  0.00000000E+00  0.00000000E+00  0.00000000E+00
  0.00000000E+00  0.00000000E+00  0.00000000E+00
  0.00000000E+00  0.00000000E+00  0.00000000E+00
  0.00000000E+00  0.00000000E+00  0.00000000E+00
  0.00000000E+00  0.00000000E+00  0.00000000E+00
  0.00000000E+00  0.00000000E+00  0.00000000E+00
  0.00000000E+00  0.00000000E+00  0.00000000E+00
  0.00000000E+00  0.00000000E+00  0.00000000E+00
  0.00000000E+00  0.00000000E+00  0.00000000E+00
  0.00000000E+00  0.00000000E+00  0.00000000E+00
  0.00000000E+00  0.00000000E+00  0.00000000E+00
  0.00000000E+00  0.00000000E+00  0.00000000E+00
  0.00000000E+00  0.00000000E+00  0.00000000E+00
  0.00000000E+00  0.00000000E+00  0.00000000E+00
  0.00000000E+00  0.00000000E+00  0.00000000E+00
  0.00000000E+00  0.00000000E+00  0.00000000E+00
  0.00000000E+00  0.00000000E+00  0.00000000E+00
  0.00000000E+00  0.00000000E+00  0.00000000E+00
  0.00000000E+00  0.00000000E+00  0.00000000E+00
  0.00000000E+00  0.00000000E+00  0.00000000E+00
  0.00000000E+00  0.00000000E+00  0.00000000E+00
  0.00000000E+00  0.00000000E+00  0.00000000E+00
  0.00000000E+00  0.00000000E+00  0.00000000E+00
  0.00000000E+00  0.00000000E+00  0.00000000E+00
  0.00000000E+00  0.00000000E+00  0.00000000E+00
  0.00000000E+00  0.00000000E+00  0.00000000E+00
