Co  H                                   
   1.00000000000000     
     8.3219397077844786    0.0000000000000000    0.0000000000000000
     0.0000000000000000    8.3219397077844786    0.0000000000000000
     0.0000000000000000    0.0000000000000000   20.8844999999999992
   Co   H 
    36     1
Direct
  0.1666666666666643  0.1666666666666643  0.4029584209099945
  0.8310193403128793  0.1666666666666643  0.5409566606531291
  0.1666666666666643  0.5164986052821025  0.5346738334252386
  0.4795804964205297  0.5177953046908601  0.5413456676352258
  0.8537528369128057  0.5177953046908601  0.5413456676352258
  0.1666666666666643  0.8168347280512331  0.5346738334252386
  0.4795804964205297  0.8155380286424756  0.5413456676352258
  0.5023139930204563  0.1666666666666643  0.5409566606531291
  0.8537528369128057  0.8155380286424756  0.5413456676352258
  0.3238751196369395 -0.0003228304796629  0.6006397802176664
  0.6666666666666643 -0.0169487118079145  0.5987359965317046
  0.0094582136963961  0.3336561638129985  0.6006397802176664
  0.3238751196369395  0.3336561638129985  0.6006397802176664
  0.6666666666666643  0.3502820451412504  0.5987359965317046
  0.0219402952571395  0.6666666666666643  0.6146443578594002
  0.0094582136963961 -0.0003228304796629  0.6006397802176664
  0.1666666666666643  0.1666666666666643  0.5332412133656357
  0.6666666666666643  0.6666666666666643  0.4642330065027894
  0.3332316713371896  0.6666666666666643  0.4524526106209107
  0.5163638771973829  0.1666666666666643  0.4043418681324213
  0.8169694561359526  0.1666666666666643  0.4043418681324213
  0.1666666666666643  0.4821905475607009  0.3955301057559686
  0.5119297604641527  0.4940623930466521  0.3951245188603213
  0.8214035728691830  0.4940623930466521  0.3951245188603213
  0.1666666666666643  0.8511427857726348  0.3955301057559686
  0.5119297604641527  0.8392709402866836  0.3951245188603213
  0.8214035728691830  0.8392709402866836  0.3951245188603213
 -0.0085992759624125 -0.0053754895178282  0.4631758220482340
  0.3419326092957482 -0.0053754895178282  0.4631758220482340
  0.6666666666666643 -0.0179900709748745  0.4715077742969045
 -0.0085992759624125  0.3387088228511638  0.4631758220482340
  0.3419326092957482  0.3387088228511639  0.4631758220482340
  0.6666666666666643  0.3513234043082102  0.4715077742969045
  0.0001016619961462  0.6666666666666643  0.4524526106209107
  0.3113930380761961  0.6666666666666643  0.6146443578594002
  0.6666666666666643  0.6666666666666643  0.6014051089779335
  0.1666666666666643  0.6666666666666643  0.6705786303351385
 
  0.00000000E+00  0.00000000E+00  0.00000000E+00
  0.00000000E+00  0.00000000E+00  0.00000000E+00
  0.00000000E+00  0.00000000E+00  0.00000000E+00
  0.00000000E+00  0.00000000E+00  0.00000000E+00
  0.00000000E+00  0.00000000E+00  0.00000000E+00
  0.00000000E+00  0.00000000E+00  0.00000000E+00
  0.00000000E+00  0.00000000E+00  0.00000000E+00
  0.00000000E+00  0.00000000E+00  0.00000000E+00
  0.00000000E+00  0.00000000E+00  0.00000000E+00
  0.00000000E+00  0.00000000E+00  0.00000000E+00
  0.00000000E+00  0.00000000E+00  0.00000000E+00
  0.00000000E+00  0.00000000E+00  0.00000000E+00
  0.00000000E+00  0.00000000E+00  0.00000000E+00
  0.00000000E+00  0.00000000E+00  0.00000000E+00
  0.00000000E+00  0.00000000E+00  0.00000000E+00
  0.00000000E+00  0.00000000E+00  0.00000000E+00
  0.00000000E+00  0.00000000E+00  0.00000000E+00
  0.00000000E+00  0.00000000E+00  0.00000000E+00
  0.00000000E+00  0.00000000E+00  0.00000000E+00
  0.00000000E+00  0.00000000E+00  0.00000000E+00
  0.00000000E+00  0.00000000E+00  0.00000000E+00
  0.00000000E+00  0.00000000E+00  0.00000000E+00
  0.00000000E+00  0.00000000E+00  0.00000000E+00
  0.00000000E+00  0.00000000E+00  0.00000000E+00
  0.00000000E+00  0.00000000E+00  0.00000000E+00
  0.00000000E+00  0.00000000E+00  0.00000000E+00
  0.00000000E+00  0.00000000E+00  0.00000000E+00
  0.00000000E+00  0.00000000E+00  0.00000000E+00
  0.00000000E+00  0.00000000E+00  0.00000000E+00
  0.00000000E+00  0.00000000E+00  0.00000000E+00
  0.00000000E+00  0.00000000E+00  0.00000000E+00
  0.00000000E+00  0.00000000E+00  0.00000000E+00
  0.00000000E+00  0.00000000E+00  0.00000000E+00
  0.00000000E+00  0.00000000E+00  0.00000000E+00
  0.00000000E+00  0.00000000E+00  0.00000000E+00
  0.00000000E+00  0.00000000E+00  0.00000000E+00
  0.00000000E+00  0.00000000E+00  0.00000000E+00
