Co  H                                   
   1.00000000000000     
     8.3219397077844786    0.0000000000000000    0.0000000000000000
     0.0000000000000000    8.3219397077844786    0.0000000000000000
     0.0000000000000000    0.0000000000000000   20.8844999999999992
   Co   H 
    36     1
Direct
  0.1539501374947634  0.1793831958385652  0.4007378286292289
  0.8333333333333357  0.1614441972578073  0.5436302031390391
  0.1718891360755213  0.5000000000000000  0.5436302031390391
  0.4947775305911429  0.5000000000000000  0.5436302031390391
  0.8333333333333357  0.5000000000000000  0.5533812066543906
  0.1677152699149641  0.8343819365816357  0.5306388708479475
  0.4989513967517000  0.8343819365816357  0.5306388708479475
  0.4989513967517001  0.1656180634183645  0.5306388708479475
  0.8333333333333357  0.8385558027421928  0.5436302031390391
  0.3333333333333357 -0.0000000000000000  0.5995361024683779
  0.6456329573016540 -0.0000000000000000  0.6032820233407937
  0.0128268875901357  0.3205064457432002  0.6050375305111994
  0.3333333333333357  0.3122996239683253  0.6032820233407937
  0.6538397790765283  0.3205064457432002  0.6050375305111994
  0.0128268875901357  0.6794935542568002  0.6050375305111994
  0.0210337093650104 -0.0000000000000000  0.6032820233407937
  0.1677152699149641  0.1656180634183645  0.5306388708479475
  0.6809226544387934  0.6524106788945352  0.4673036946841714
  0.3333333333333357  0.6545873969791184  0.4600769868759871
  0.5127165291719008  0.1793831958385652  0.4007378286292289
  0.8333333333333357  0.1807972853132649  0.3969076468945389
  0.1525360480200637  0.5000000000000000  0.3969076468945389
  0.5141306186466005  0.5000000000000000  0.3969076468945389
  0.8333333333333357  0.5000000000000000  0.3906989389676201
  0.1539501374947634  0.8206168041614349  0.4007378286292289
  0.5127165291719008  0.8206168041614349  0.4007378286292289
  0.8333333333333357  0.8192027146867353  0.3969076468945389
 -0.0120792696875455 -0.0000000000000000  0.4600769868759871
  0.3333333333333357 -0.0000000000000000  0.4525546909535342
  0.6787459363542102 -0.0000000000000000  0.4600769868759871
 -0.0142559877721289  0.3475893211054646  0.4673036946841714
  0.3333333333333357  0.3454126030208810  0.4600769868759871
  0.6809226544387934  0.3475893211054646  0.4673036946841714
 -0.0142559877721289  0.6524106788945352  0.4673036946841714
  0.3333333333333357  0.6877003760316746  0.6032820233407937
  0.6538397790765283  0.6794935542568002  0.6050375305111994
  0.3333333333333357 -0.0000000000000000  0.6726158709530934
 
  0.00000000E+00  0.00000000E+00  0.00000000E+00
  0.00000000E+00  0.00000000E+00  0.00000000E+00
  0.00000000E+00  0.00000000E+00  0.00000000E+00
  0.00000000E+00  0.00000000E+00  0.00000000E+00
  0.00000000E+00  0.00000000E+00  0.00000000E+00
  0.00000000E+00  0.00000000E+00  0.00000000E+00
  0.00000000E+00  0.00000000E+00  0.00000000E+00
  0.00000000E+00  0.00000000E+00  0.00000000E+00
  0.00000000E+00  0.00000000E+00  0.00000000E+00
  0.00000000E+00  0.00000000E+00  0.00000000E+00
  0.00000000E+00  0.00000000E+00  0.00000000E+00
  0.00000000E+00  0.00000000E+00  0.00000000E+00
  0.00000000E+00  0.00000000E+00  0.00000000E+00
  0.00000000E+00  0.00000000E+00  0.00000000E+00
  0.00000000E+00  0.00000000E+00  0.00000000E+00
  0.00000000E+00  0.00000000E+00  0.00000000E+00
  0.00000000E+00  0.00000000E+00  0.00000000E+00
  0.00000000E+00  0.00000000E+00  0.00000000E+00
  0.00000000E+00  0.00000000E+00  0.00000000E+00
  0.00000000E+00  0.00000000E+00  0.00000000E+00
  0.00000000E+00  0.00000000E+00  0.00000000E+00
  0.00000000E+00  0.00000000E+00  0.00000000E+00
  0.00000000E+00  0.00000000E+00  0.00000000E+00
  0.00000000E+00  0.00000000E+00  0.00000000E+00
  0.00000000E+00  0.00000000E+00  0.00000000E+00
  0.00000000E+00  0.00000000E+00  0.00000000E+00
  0.00000000E+00  0.00000000E+00  0.00000000E+00
  0.00000000E+00  0.00000000E+00  0.00000000E+00
  0.00000000E+00  0.00000000E+00  0.00000000E+00
  0.00000000E+00  0.00000000E+00  0.00000000E+00
  0.00000000E+00  0.00000000E+00  0.00000000E+00
  0.00000000E+00  0.00000000E+00  0.00000000E+00
  0.00000000E+00  0.00000000E+00  0.00000000E+00
  0.00000000E+00  0.00000000E+00  0.00000000E+00
  0.00000000E+00  0.00000000E+00  0.00000000E+00
  0.00000000E+00  0.00000000E+00  0.00000000E+00
  0.00000000E+00  0.00000000E+00  0.00000000E+00
