Co Fe Ir Ni Ru                          
   1.00000000000000     
     8.3219397077844786    0.0000000000000000    0.0000000000000000
     0.0000000000000000    8.3219397077844786    0.0000000000000000
     0.0000000000000000    0.0000000000000000   20.8844999999999992
   Co   Fe   Ir   Ni   Ru
     7     7     7     8     7
Direct
 -0.0109894852606214  0.3182969277000128  0.6182692737979366
  0.8340527792870382  0.1634586794636326  0.5410381664228507
  0.3261204441635285  0.0013106751287740  0.6142150889282940
  0.8563233219568163  0.8128401128592521  0.3774877175024270
  0.8457111732048419  0.4944180182966078  0.5429855351959272
  0.1692542872485334  0.5221315420971444  0.3826458637263530
  0.8177122757019150  0.1886756022388502  0.3795673671486958
  0.3278225675534857  0.6620539373308368  0.4591922407155632
  0.5125152943969076  0.4835674897101424  0.3786344363220823
  0.3178969994566097  0.6944864199818066  0.6209293167347963
  0.1614414414218680  0.1670004832264225  0.5436337919030296
  0.3252957637396324  0.0004161677847657  0.4618975886106802
  0.4623467417018132  0.8385838388797434  0.3824724569374395
  0.6714427776414471  0.3377040429876457  0.4609509490317702
  0.4936922574754168  0.5108287890928301  0.5485910632999058
  0.0075231683712147  0.3277878907308361  0.4532450591012149
  0.3329575286762068  0.3332629808784474  0.4554205149266146
  0.1655074899402104  0.4983378546818565  0.5493126476202329
  0.6658723865125378  0.6713146872266265  0.4514754915479984
  0.0069151648139556  0.0034114892832660  0.6212202517533886
  0.6650266902069696  0.0195963473800104  0.6231456139478397
  0.1613984876202188  0.8327318767561755  0.5386005308809879
 -0.0041256379663364  0.6633578241198030  0.4610425307198514
  0.1632701100401342  0.8264265191987628  0.3879402579206465
  0.3395787735489856  0.3092357842909559  0.6179426693744480
  0.8378564403187133  0.5011388188168499  0.3825356440056538
  0.5038466007725440  0.1621187087018711  0.5399276225369998
 -0.0036001399972513  0.6760641048848414  0.6184357656528801
  0.1850377215114480  0.1500830178481593  0.3781844530148977
  0.5046301415202759  0.1628652978642637  0.3825370822665375
  0.5114822804035298  0.8336944519060946  0.5448206985014615
  0.8260630098187710  0.8428564919269144  0.5452432894052738
  0.6753577702090606 -0.0104153003082405  0.4463416750802853
 -0.0139240388982876  0.0064497917302592  0.4501241769077029
  0.6749875201635352  0.3301937145318726  0.6166013261574880
  0.6836998927243293  0.6637149207719076  0.6233918423998446
 
  0.00000000E+00  0.00000000E+00  0.00000000E+00
  0.00000000E+00  0.00000000E+00  0.00000000E+00
  0.00000000E+00  0.00000000E+00  0.00000000E+00
  0.00000000E+00  0.00000000E+00  0.00000000E+00
  0.00000000E+00  0.00000000E+00  0.00000000E+00
  0.00000000E+00  0.00000000E+00  0.00000000E+00
  0.00000000E+00  0.00000000E+00  0.00000000E+00
  0.00000000E+00  0.00000000E+00  0.00000000E+00
  0.00000000E+00  0.00000000E+00  0.00000000E+00
  0.00000000E+00  0.00000000E+00  0.00000000E+00
  0.00000000E+00  0.00000000E+00  0.00000000E+00
  0.00000000E+00  0.00000000E+00  0.00000000E+00
  0.00000000E+00  0.00000000E+00  0.00000000E+00
  0.00000000E+00  0.00000000E+00  0.00000000E+00
  0.00000000E+00  0.00000000E+00  0.00000000E+00
  0.00000000E+00  0.00000000E+00  0.00000000E+00
  0.00000000E+00  0.00000000E+00  0.00000000E+00
  0.00000000E+00  0.00000000E+00  0.00000000E+00
  0.00000000E+00  0.00000000E+00  0.00000000E+00
  0.00000000E+00  0.00000000E+00  0.00000000E+00
  0.00000000E+00  0.00000000E+00  0.00000000E+00
  0.00000000E+00  0.00000000E+00  0.00000000E+00
  0.00000000E+00  0.00000000E+00  0.00000000E+00
  0.00000000E+00  0.00000000E+00  0.00000000E+00
  0.00000000E+00  0.00000000E+00  0.00000000E+00
  0.00000000E+00  0.00000000E+00  0.00000000E+00
  0.00000000E+00  0.00000000E+00  0.00000000E+00
  0.00000000E+00  0.00000000E+00  0.00000000E+00
  0.00000000E+00  0.00000000E+00  0.00000000E+00
  0.00000000E+00  0.00000000E+00  0.00000000E+00
  0.00000000E+00  0.00000000E+00  0.00000000E+00
  0.00000000E+00  0.00000000E+00  0.00000000E+00
  0.00000000E+00  0.00000000E+00  0.00000000E+00
  0.00000000E+00  0.00000000E+00  0.00000000E+00
  0.00000000E+00  0.00000000E+00  0.00000000E+00
  0.00000000E+00  0.00000000E+00  0.00000000E+00
