Co Fe Ir Ni Ru                          
   1.00000000000000     
     8.3219397077844786    0.0000000000000000    0.0000000000000000
     0.0000000000000000    8.3219397077844786    0.0000000000000000
     0.0000000000000000    0.0000000000000000   20.8844999999999992
   Co   Fe   Ir   Ni   Ru
     7     7     7     7     8
Direct
  0.6736260775696070  0.6473864433480808  0.4663136649890819
  0.6611285957450463  0.3200314376858852  0.6158830397706088
  0.8427406337694229  0.8161281121712739  0.5447422467848386
  0.8539524711038702  0.1910087315842405  0.5448613188115859
  0.4818307333109505  0.1833454004403144  0.5404121298830021
  0.1645354526694823  0.1810556135108814  0.5418715705500872
  0.3319616524197081  0.6596470680567296  0.6151342277903714
  0.5123203726258588  0.8397020643525951  0.3969676805429598
  0.1716209068993263  0.8465737990436610  0.3824000179499075
  0.3235155917905930  0.0048562249215258  0.4628971008731304
  0.6647582771950180  0.6741836380341292  0.6149907788168296
  0.4956420606484619  0.4916735350650083  0.5450220999804181
  0.1642403076106722  0.8195956852018325  0.5432675340020322
 -0.0039781689074071  0.0020194557322833  0.6107776635300421
  0.8060865054560316  0.8360680597466374  0.3862090782453905
  0.0189388250967994  0.3358294632259124  0.6272456872941495
  0.6680259542504123  0.0111958550688198  0.6062602375029251
  0.3260306388675691  0.3381521855669086  0.4503750118147190
  0.6726993451430405  0.3407565667397496  0.4541958316958078
  0.0037879445162660  0.6601837750287739  0.4559686026715481
 -0.0000934672865235  0.0025714173432087  0.4619339693177456
  0.1643680957919146  0.4994137479530142  0.3716509028117881
  0.1677496535669619  0.4953925670146540  0.5428493281759669
  0.8232172156749090  0.5194470985003282  0.3761329954151859
  0.3301155218522581  0.0022936309017348  0.6104120553481248
  0.0164817486484932  0.6635504490471859  0.6215231326376126
  0.6773569920818184  0.0178721910737729  0.4741801051785074
  0.1688765659620936  0.1543281022409500  0.3789853666995810
 -0.0032896196207934  0.3337778408181507  0.4500553358112531
  0.3206678042249381  0.6546131577043224  0.4548264257203459
  0.5087043337136320  0.5202255347484938  0.3786319625547400
  0.4929611402094778  0.8247183846928619  0.5383964658981961
  0.8184529134110515  0.1441844681097109  0.3793460844936646
  0.3301752558469694  0.3339367170383974  0.6220759400643963
  0.5042733352291665  0.1419185203913371  0.3839018425568733
  0.8465183329129029  0.4923630578966361  0.5493025638165808
 
  0.00000000E+00  0.00000000E+00  0.00000000E+00
  0.00000000E+00  0.00000000E+00  0.00000000E+00
  0.00000000E+00  0.00000000E+00  0.00000000E+00
  0.00000000E+00  0.00000000E+00  0.00000000E+00
  0.00000000E+00  0.00000000E+00  0.00000000E+00
  0.00000000E+00  0.00000000E+00  0.00000000E+00
  0.00000000E+00  0.00000000E+00  0.00000000E+00
  0.00000000E+00  0.00000000E+00  0.00000000E+00
  0.00000000E+00  0.00000000E+00  0.00000000E+00
  0.00000000E+00  0.00000000E+00  0.00000000E+00
  0.00000000E+00  0.00000000E+00  0.00000000E+00
  0.00000000E+00  0.00000000E+00  0.00000000E+00
  0.00000000E+00  0.00000000E+00  0.00000000E+00
  0.00000000E+00  0.00000000E+00  0.00000000E+00
  0.00000000E+00  0.00000000E+00  0.00000000E+00
  0.00000000E+00  0.00000000E+00  0.00000000E+00
  0.00000000E+00  0.00000000E+00  0.00000000E+00
  0.00000000E+00  0.00000000E+00  0.00000000E+00
  0.00000000E+00  0.00000000E+00  0.00000000E+00
  0.00000000E+00  0.00000000E+00  0.00000000E+00
  0.00000000E+00  0.00000000E+00  0.00000000E+00
  0.00000000E+00  0.00000000E+00  0.00000000E+00
  0.00000000E+00  0.00000000E+00  0.00000000E+00
  0.00000000E+00  0.00000000E+00  0.00000000E+00
  0.00000000E+00  0.00000000E+00  0.00000000E+00
  0.00000000E+00  0.00000000E+00  0.00000000E+00
  0.00000000E+00  0.00000000E+00  0.00000000E+00
  0.00000000E+00  0.00000000E+00  0.00000000E+00
  0.00000000E+00  0.00000000E+00  0.00000000E+00
  0.00000000E+00  0.00000000E+00  0.00000000E+00
  0.00000000E+00  0.00000000E+00  0.00000000E+00
  0.00000000E+00  0.00000000E+00  0.00000000E+00
  0.00000000E+00  0.00000000E+00  0.00000000E+00
  0.00000000E+00  0.00000000E+00  0.00000000E+00
  0.00000000E+00  0.00000000E+00  0.00000000E+00
  0.00000000E+00  0.00000000E+00  0.00000000E+00
