Co Fe Ni Pt Ru                          
   1.00000000000000     
     8.3219397077844786    0.0000000000000000    0.0000000000000000
     0.0000000000000000    8.3219397077844786    0.0000000000000000
     0.0000000000000000    0.0000000000000000   20.8844999999999992
   Co   Fe   Ni   Pt   Ru
     7     8     7     7     7
Direct
  0.6826430348833818 -0.0011419537926467  0.4616880079231872
  0.6838559870765664  0.3299375632165267  0.6228352274369185
  0.8315534055139310  0.1672571041349429  0.5445571585429132
  0.5009902229175965  0.8392475961512167  0.5328020722076948
  0.1640381385680292  0.1577019934410420  0.5473531064219372
  0.3364168493560757  0.6602683794790725  0.4572598710851417
  0.8396174040523539  0.8328376174368305  0.5474649578395263
  0.1474777892261277  0.5115055063085299  0.3835900749449833
  0.5073190439865568  0.5181387745215029  0.3778162667511408
  0.4949311154793926  0.8439852001133769  0.3903092954893004
  0.3402574598571770  0.6683750921437501  0.6178027362233317
  0.3256055299073353  0.0101363748707075  0.4604592205629114
  0.1653893196900476  0.5030745403078767  0.5391454911506512
  0.0001799135683973  0.3232806783293755  0.4584022159616507
 -0.0203741081916922  0.0170388074067809  0.6195005909720757
  0.1596390075941360  0.1568346010806104  0.3791022633766351
 -0.0071908166976888  0.0013900597794507  0.4595393704472445
  0.8227222668568009  0.8509369742919883  0.3769592356572650
  0.0067995389312671  0.3278473922194488  0.6180472279966239
  0.8380504540683916  0.4819929436826015  0.3769361666006137
  0.3107459055242939  0.3478765471842526  0.6176746265560448
  0.6691674171982809 -0.0055432327519579  0.6171841498590553
  0.1548740295999753  0.8358772299635274  0.5423649553819748
  0.6606372940605557  0.6818185482805840  0.6276841209038281
  0.4973454549628685  0.1713676301763878  0.5488030329997696
  0.3285963648414718  0.3366211912140437  0.4514434769829588
  0.1785633879385821  0.8433997324653580  0.3756142472921266
  0.8417549505780877  0.1618248043830055  0.3742165667377309
  0.8392407563322786  0.4980922270656342  0.5437570126799711
  0.5087479914383013  0.5000764139819583  0.5427431650103348
 -0.0177456162173231  0.6809724044856046  0.4499252814384683
  0.6563894110330422  0.3304144904177598  0.4516425067292129
  0.3477298066028686 -0.0246901665560556  0.6248984657471015
  0.5062320027036087  0.1399217300864110  0.3778571104501612
  0.0202610096306676  0.6419271801826490  0.6295893514330659
  0.6775382771282580  0.6593980242978544  0.4530313722064495
 
  0.00000000E+00  0.00000000E+00  0.00000000E+00
  0.00000000E+00  0.00000000E+00  0.00000000E+00
  0.00000000E+00  0.00000000E+00  0.00000000E+00
  0.00000000E+00  0.00000000E+00  0.00000000E+00
  0.00000000E+00  0.00000000E+00  0.00000000E+00
  0.00000000E+00  0.00000000E+00  0.00000000E+00
  0.00000000E+00  0.00000000E+00  0.00000000E+00
  0.00000000E+00  0.00000000E+00  0.00000000E+00
  0.00000000E+00  0.00000000E+00  0.00000000E+00
  0.00000000E+00  0.00000000E+00  0.00000000E+00
  0.00000000E+00  0.00000000E+00  0.00000000E+00
  0.00000000E+00  0.00000000E+00  0.00000000E+00
  0.00000000E+00  0.00000000E+00  0.00000000E+00
  0.00000000E+00  0.00000000E+00  0.00000000E+00
  0.00000000E+00  0.00000000E+00  0.00000000E+00
  0.00000000E+00  0.00000000E+00  0.00000000E+00
  0.00000000E+00  0.00000000E+00  0.00000000E+00
  0.00000000E+00  0.00000000E+00  0.00000000E+00
  0.00000000E+00  0.00000000E+00  0.00000000E+00
  0.00000000E+00  0.00000000E+00  0.00000000E+00
  0.00000000E+00  0.00000000E+00  0.00000000E+00
  0.00000000E+00  0.00000000E+00  0.00000000E+00
  0.00000000E+00  0.00000000E+00  0.00000000E+00
  0.00000000E+00  0.00000000E+00  0.00000000E+00
  0.00000000E+00  0.00000000E+00  0.00000000E+00
  0.00000000E+00  0.00000000E+00  0.00000000E+00
  0.00000000E+00  0.00000000E+00  0.00000000E+00
  0.00000000E+00  0.00000000E+00  0.00000000E+00
  0.00000000E+00  0.00000000E+00  0.00000000E+00
  0.00000000E+00  0.00000000E+00  0.00000000E+00
  0.00000000E+00  0.00000000E+00  0.00000000E+00
  0.00000000E+00  0.00000000E+00  0.00000000E+00
  0.00000000E+00  0.00000000E+00  0.00000000E+00
  0.00000000E+00  0.00000000E+00  0.00000000E+00
  0.00000000E+00  0.00000000E+00  0.00000000E+00
  0.00000000E+00  0.00000000E+00  0.00000000E+00
