Co Fe Ni Pd Pt Ru                       
   1.00000000000000     
     5.5479598051896524    0.0000000000000000    0.0000000000000000
     0.0000000000000000    5.5479598051896524    0.0000000000000000
     0.0000000000000000    0.0000000000000000   28.7304999999999993
   Co   Fe   Ni   Pd   Pt   Ru
     3     3     3    16     4     3
Selective dynamics
Direct
  0.7581698930004382  0.7433827475097896  0.6553743155905427   T   T   T
  0.2371487928190433  0.7375488534221548  0.6575860343690580   T   T   T
  0.2459265285179708  0.7449712239678896  0.5327247150783804   T   T   T
  0.7544496523070119  0.2657791568707297  0.6581954352562652   T   T   T
  0.4767710754240275  0.5027717544025234  0.5934047476534052   T   T   T
 -0.0313442278708353 -0.0261657946137328  0.7109106560676229   T   T   T
  0.0092053831577236  0.5020722867572140  0.5950409731027517   T   T   T
 -0.0088503412460717  0.5095810742184265  0.7148628761557326   T   T   T
  0.2466803590902099  0.2559707815242810  0.5329541525222611   T   T   T
  0.2500000000000000  0.2500000000000000  0.2610466229268553   F   F   F
  0.0000000000000000  0.5000000000000000  0.4658638032752620   F   F   F
  0.5000000000000000  0.0000000000000000  0.4658638032752620   F   F   F
  0.5000000000000000  0.5000000000000000  0.4658638032752620   F   F   F
  0.7500000000000000  0.7500000000000000  0.3975914098257931   F   F   F
  0.7500000000000000  0.2500000000000000  0.2610466229268553   F   F   F
  0.2500000000000000  0.7500000000000000  0.2610466229268553   F   F   F
  0.7500000000000000  0.7500000000000000  0.2610466229268553   F   F   F
  0.0000000000000000  0.0000000000000000  0.3293190163763242   F   F   F
  0.0000000000000000  0.0000000000000000  0.4658638032752620   F   F   F
  0.5000000000000000  0.0000000000000000  0.3293190163763242   F   F   F
  0.5000000000000000  0.5000000000000000  0.3293190163763242   F   F   F
  0.2500000000000000  0.2500000000000000  0.3975914098257931   F   F   F
  0.7500000000000000  0.2500000000000000  0.3975914098257931   F   F   F
  0.2500000000000000  0.7500000000000000  0.3975914098257931   F   F   F
  0.0000000000000000  0.5000000000000000  0.3293190163763242   F   F   F
  0.4894232491526150 -0.0037489393899704  0.5966844041647352   T   T   T
  0.7535674932620439  0.7467336200172883  0.5343804225906476   T   T   T
  0.7529125551216982  0.2546257126490059  0.5347506055259322   T   T   T
  0.5087767061515810  0.5186251469644545  0.7174794418336402   T   T   T
  0.0055655537712967  0.0043448916261204  0.5987578192922649   T   T   T
  0.2423419496942311  0.2494458855499891  0.6604166222403757   T   T   T
  0.5055954742863440  0.0064087036909268  0.7130684018957301   T   T   T
 
  0.00000000E+00  0.00000000E+00  0.00000000E+00
  0.00000000E+00  0.00000000E+00  0.00000000E+00
  0.00000000E+00  0.00000000E+00  0.00000000E+00
  0.00000000E+00  0.00000000E+00  0.00000000E+00
  0.00000000E+00  0.00000000E+00  0.00000000E+00
  0.00000000E+00  0.00000000E+00  0.00000000E+00
  0.00000000E+00  0.00000000E+00  0.00000000E+00
  0.00000000E+00  0.00000000E+00  0.00000000E+00
  0.00000000E+00  0.00000000E+00  0.00000000E+00
  0.00000000E+00  0.00000000E+00  0.00000000E+00
  0.00000000E+00  0.00000000E+00  0.00000000E+00
  0.00000000E+00  0.00000000E+00  0.00000000E+00
  0.00000000E+00  0.00000000E+00  0.00000000E+00
  0.00000000E+00  0.00000000E+00  0.00000000E+00
  0.00000000E+00  0.00000000E+00  0.00000000E+00
  0.00000000E+00  0.00000000E+00  0.00000000E+00
  0.00000000E+00  0.00000000E+00  0.00000000E+00
  0.00000000E+00  0.00000000E+00  0.00000000E+00
  0.00000000E+00  0.00000000E+00  0.00000000E+00
  0.00000000E+00  0.00000000E+00  0.00000000E+00
  0.00000000E+00  0.00000000E+00  0.00000000E+00
  0.00000000E+00  0.00000000E+00  0.00000000E+00
  0.00000000E+00  0.00000000E+00  0.00000000E+00
  0.00000000E+00  0.00000000E+00  0.00000000E+00
  0.00000000E+00  0.00000000E+00  0.00000000E+00
  0.00000000E+00  0.00000000E+00  0.00000000E+00
  0.00000000E+00  0.00000000E+00  0.00000000E+00
  0.00000000E+00  0.00000000E+00  0.00000000E+00
  0.00000000E+00  0.00000000E+00  0.00000000E+00
  0.00000000E+00  0.00000000E+00  0.00000000E+00
  0.00000000E+00  0.00000000E+00  0.00000000E+00
  0.00000000E+00  0.00000000E+00  0.00000000E+00
