Co Fe Ni Pd Pt Ru                       
   1.00000000000000     
     5.5479598051896524    0.0000000000000000    0.0000000000000000
     0.0000000000000000    5.5479598051896524    0.0000000000000000
     0.0000000000000000    0.0000000000000000   28.7304999999999993
   Co   Fe   Ni   Pd   Pt   Ru
     3     3     3    16     4     3
Selective dynamics
Direct
  0.7683384112261373  0.7373366761020805  0.6609185889968590   T   T   T
  0.2337050534198327  0.7324913878093390  0.6628537079041207   T   T   T
  0.5131402569180278 -0.0073566844090804  0.7080274075031380   T   T   T
  0.7512952251595867  0.2646630953203189  0.6620220644122692   T   T   T
  0.4911466148092555  0.5062622848672942  0.5989459815669544   T   T   T
 -0.0148587595744981 -0.0182852113781415  0.7142648155742113   T   T   T
  0.0047033802741290  0.5080563494422716  0.5989387709425562   T   T   T
 -0.0153991705615736  0.5011242883783763  0.7182921683708036   T   T   T
  0.5098104064613413  0.5125361469072115  0.7141869122285858   T   T   T
  0.2500000000000000  0.2500000000000000  0.2610466229268553   F   F   F
  0.0000000000000000  0.5000000000000000  0.4658638032752620   F   F   F
  0.5000000000000000  0.0000000000000000  0.4658638032752620   F   F   F
  0.5000000000000000  0.5000000000000000  0.4658638032752620   F   F   F
  0.7500000000000000  0.7500000000000000  0.3975914098257931   F   F   F
  0.7500000000000000  0.2500000000000000  0.2610466229268553   F   F   F
  0.2500000000000000  0.7500000000000000  0.2610466229268553   F   F   F
  0.7500000000000000  0.7500000000000000  0.2610466229268553   F   F   F
  0.0000000000000000  0.0000000000000000  0.3293190163763242   F   F   F
  0.0000000000000000  0.0000000000000000  0.4658638032752620   F   F   F
  0.5000000000000000  0.0000000000000000  0.3293190163763242   F   F   F
  0.5000000000000000  0.5000000000000000  0.3293190163763242   F   F   F
  0.2500000000000000  0.2500000000000000  0.3975914098257931   F   F   F
  0.7500000000000000  0.2500000000000000  0.3975914098257931   F   F   F
  0.2500000000000000  0.7500000000000000  0.3975914098257931   F   F   F
  0.0000000000000000  0.5000000000000000  0.3293190163763242   F   F   F
  0.4997690875330952 -0.0112169631144003  0.6038685040977569   T   T   T
  0.7492899271072145  0.7460297394881511  0.5359666968738945   T   T   T
  0.7525185540794561  0.2514928173187265  0.5374497259893206   T   T   T
  0.2514031334680020  0.2580883610066640  0.5364406662062701   T   T   T
  0.0136046894479464 -0.0138443193204415  0.6015962730415860   T   T   T
  0.2365545848679337  0.2604504064648940  0.6635019953401720   T   T   T
  0.2437708962596205  0.7549205365672498  0.5355681604882431   T   T   T
 
  0.00000000E+00  0.00000000E+00  0.00000000E+00
  0.00000000E+00  0.00000000E+00  0.00000000E+00
  0.00000000E+00  0.00000000E+00  0.00000000E+00
  0.00000000E+00  0.00000000E+00  0.00000000E+00
  0.00000000E+00  0.00000000E+00  0.00000000E+00
  0.00000000E+00  0.00000000E+00  0.00000000E+00
  0.00000000E+00  0.00000000E+00  0.00000000E+00
  0.00000000E+00  0.00000000E+00  0.00000000E+00
  0.00000000E+00  0.00000000E+00  0.00000000E+00
  0.00000000E+00  0.00000000E+00  0.00000000E+00
  0.00000000E+00  0.00000000E+00  0.00000000E+00
  0.00000000E+00  0.00000000E+00  0.00000000E+00
  0.00000000E+00  0.00000000E+00  0.00000000E+00
  0.00000000E+00  0.00000000E+00  0.00000000E+00
  0.00000000E+00  0.00000000E+00  0.00000000E+00
  0.00000000E+00  0.00000000E+00  0.00000000E+00
  0.00000000E+00  0.00000000E+00  0.00000000E+00
  0.00000000E+00  0.00000000E+00  0.00000000E+00
  0.00000000E+00  0.00000000E+00  0.00000000E+00
  0.00000000E+00  0.00000000E+00  0.00000000E+00
  0.00000000E+00  0.00000000E+00  0.00000000E+00
  0.00000000E+00  0.00000000E+00  0.00000000E+00
  0.00000000E+00  0.00000000E+00  0.00000000E+00
  0.00000000E+00  0.00000000E+00  0.00000000E+00
  0.00000000E+00  0.00000000E+00  0.00000000E+00
  0.00000000E+00  0.00000000E+00  0.00000000E+00
  0.00000000E+00  0.00000000E+00  0.00000000E+00
  0.00000000E+00  0.00000000E+00  0.00000000E+00
  0.00000000E+00  0.00000000E+00  0.00000000E+00
  0.00000000E+00  0.00000000E+00  0.00000000E+00
  0.00000000E+00  0.00000000E+00  0.00000000E+00
  0.00000000E+00  0.00000000E+00  0.00000000E+00
