Fe  H                                   
   1.00000000000000     
     8.3219397077844786    0.0000000000000000    0.0000000000000000
     0.0000000000000000    8.3219397077844786    0.0000000000000000
     0.0000000000000000    0.0000000000000000   20.8844999999999992
   Fe   H 
    36     1
Direct
  0.1666666666666643  0.1583417966963228  0.3900254504771984
  0.8346527281071549  0.1679860614404833  0.5389233512981315
  0.1666666666666643  0.5000000000000000  0.5330190178458488
  0.4987853337349299  0.5000000000000000  0.5383140190102864
  0.8345479995984060  0.5000000000000000  0.5383140190102864
  0.1666666666666643  0.8321186670682654  0.5383140190102864
  0.4986806052261809  0.8320139385595166  0.5389233512981315
  0.4986806052261809  0.1679860614404833  0.5389233512981315
  0.8346527281071549  0.8320139385595166  0.5389233512981315
  0.3375585244915816 -0.0000000000000000  0.6092325446485470
  0.6666666666666643 -0.0000000000000000  0.6130626638004073
  0.0124174511982037  0.3457507845315394  0.6150881870951165
  0.3209158821351320  0.3457507845315394  0.6150881870951165
  0.6666666666666643  0.3291081421750898  0.6092325446485470
  0.0124174511982037  0.6542492154684606  0.6150881870951165
 -0.0042251911582458 -0.0000000000000000  0.6092325446485470
  0.1666666666666643  0.1678813329317345  0.5383140190102864
  0.6666666666666643  0.6675335722470338  0.4649878961928742
  0.3342616786640119  0.6675950119973406  0.4633601710836279
  0.4980743299743973  0.1685923366922671  0.3920956909652476
  0.8352590033589383  0.1685923366922671  0.3920956909652476
  0.1666666666666643  0.5000000000000000  0.3931748093831380
  0.5083248699703413  0.5000000000000000  0.3900254504771984
  0.8250084633629944  0.5000000000000000  0.3900254504771984
  0.1666666666666643  0.8416582033036770  0.3900254504771984
  0.4980743299743973  0.8314076633077331  0.3920956909652476
  0.8352590033589383  0.8314076633077331  0.3920956909652476
  0.9991330944196305 -0.0000000000000000  0.4649878961928742
  0.3342002389137051 -0.0000000000000000  0.4649878961928742
  0.6666666666666643 -0.0000000000000000  0.4654382144619665
 -0.0009283453306763  0.3324049880026595  0.4633601710836279
  0.3342616786640119  0.3324049880026595  0.4633601710836279
  0.6666666666666643  0.3324664277529663  0.4649878961928742
 -0.0009283453306763  0.6675950119973406  0.4633601710836279
  0.3209158821351320  0.6542492154684606  0.6150881870951165
  0.6666666666666643  0.6708918578249102  0.6092325446485470
  0.1666666666666643  0.5000000000000000  0.6512983501865366
 
  0.00000000E+00  0.00000000E+00  0.00000000E+00
  0.00000000E+00  0.00000000E+00  0.00000000E+00
  0.00000000E+00  0.00000000E+00  0.00000000E+00
  0.00000000E+00  0.00000000E+00  0.00000000E+00
  0.00000000E+00  0.00000000E+00  0.00000000E+00
  0.00000000E+00  0.00000000E+00  0.00000000E+00
  0.00000000E+00  0.00000000E+00  0.00000000E+00
  0.00000000E+00  0.00000000E+00  0.00000000E+00
  0.00000000E+00  0.00000000E+00  0.00000000E+00
  0.00000000E+00  0.00000000E+00  0.00000000E+00
  0.00000000E+00  0.00000000E+00  0.00000000E+00
  0.00000000E+00  0.00000000E+00  0.00000000E+00
  0.00000000E+00  0.00000000E+00  0.00000000E+00
  0.00000000E+00  0.00000000E+00  0.00000000E+00
  0.00000000E+00  0.00000000E+00  0.00000000E+00
  0.00000000E+00  0.00000000E+00  0.00000000E+00
  0.00000000E+00  0.00000000E+00  0.00000000E+00
  0.00000000E+00  0.00000000E+00  0.00000000E+00
  0.00000000E+00  0.00000000E+00  0.00000000E+00
  0.00000000E+00  0.00000000E+00  0.00000000E+00
  0.00000000E+00  0.00000000E+00  0.00000000E+00
  0.00000000E+00  0.00000000E+00  0.00000000E+00
  0.00000000E+00  0.00000000E+00  0.00000000E+00
  0.00000000E+00  0.00000000E+00  0.00000000E+00
  0.00000000E+00  0.00000000E+00  0.00000000E+00
  0.00000000E+00  0.00000000E+00  0.00000000E+00
  0.00000000E+00  0.00000000E+00  0.00000000E+00
  0.00000000E+00  0.00000000E+00  0.00000000E+00
  0.00000000E+00  0.00000000E+00  0.00000000E+00
  0.00000000E+00  0.00000000E+00  0.00000000E+00
  0.00000000E+00  0.00000000E+00  0.00000000E+00
  0.00000000E+00  0.00000000E+00  0.00000000E+00
  0.00000000E+00  0.00000000E+00  0.00000000E+00
  0.00000000E+00  0.00000000E+00  0.00000000E+00
  0.00000000E+00  0.00000000E+00  0.00000000E+00
  0.00000000E+00  0.00000000E+00  0.00000000E+00
  0.00000000E+00  0.00000000E+00  0.00000000E+00
