Co  H                                   
   1.00000000000000     
     8.3219397077844786    0.0000000000000000    0.0000000000000000
     0.0000000000000000    8.3219397077844786    0.0000000000000000
     0.0000000000000000    0.0000000000000000   20.8844999999999992
   Co   H 
    36     1
Direct
  0.1666666666666643  0.1524350460032478  0.3961411647626846
  0.8528330010886293  0.1861663344219577  0.5429477323053574
  0.1666666666666643  0.5000000000000000  0.5318030491140971
  0.4730519636560064  0.5000000000000000  0.5373996841707345
  0.8602813696773294  0.5000000000000000  0.5373996841707345
  0.1666666666666643  0.8063852969893420  0.5373996841707345
  0.4805003322447066  0.8138336655780420  0.5429477323053574
  0.4805003322447066  0.1861663344219577  0.5429477323053574
  0.8528330010886294  0.8138336655780422  0.5429477323053574
  0.3177201683003643 -0.0000000000000000  0.5981900454769974
  0.6666666666666643 -0.0000000000000000  0.5947886104078260
  0.0173901640654653  0.3507234973988013  0.6129734246047857
  0.3159431692678701  0.3507234973988013  0.6129734246047857
  0.6666666666666643  0.3489464983663071  0.5981900454769974
  0.0173901640654653  0.6492765026011991  0.6129734246047857
  0.0156131650329715 -0.0000000000000000  0.5981900454769974
  0.1666666666666643  0.1936147030106581  0.5373996841707345
  0.6666666666666643  0.6610400607638826  0.4688761952930015
  0.3314537302241830  0.6647870635575115  0.4534146713761270
  0.5126791834740310  0.1539874831926331  0.4039068313681651
  0.8206541498593047  0.1539874831926331  0.4039068313681651
  0.1666666666666643  0.5000000000000000  0.3894632062910538
  0.5142316206634163  0.5000000000000000  0.3961411647626846
  0.8191017126699193  0.5000000000000000  0.3961411647626846
  0.1666666666666643  0.8475649539967521  0.3961411647626846
  0.5126791834740310  0.8460125168073667  0.4039068313681651
  0.8206541498593047  0.8460125168073667  0.4039068313681651
  0.0056266059027817 -0.0000000000000000  0.4688761952930015
  0.3277067274305541 -0.0000000000000000  0.4688761952930015
  0.6666666666666643 -0.0000000000000000  0.4784522405817053
  0.0018796031091528  0.3352129364424885  0.4534146713761270
  0.3314537302241830  0.3352129364424885  0.4534146713761270
  0.6666666666666643  0.3389599392361173  0.4688761952930015
  0.0018796031091528  0.6647870635575115  0.4534146713761270
  0.3159431692678701  0.6492765026011991  0.6129734246047857
  0.6666666666666643  0.6510535016336929  0.5981900454769974
  0.1666666666666643  0.5000000000000000  0.6493398458625439
 
  0.00000000E+00  0.00000000E+00  0.00000000E+00
  0.00000000E+00  0.00000000E+00  0.00000000E+00
  0.00000000E+00  0.00000000E+00  0.00000000E+00
  0.00000000E+00  0.00000000E+00  0.00000000E+00
  0.00000000E+00  0.00000000E+00  0.00000000E+00
  0.00000000E+00  0.00000000E+00  0.00000000E+00
  0.00000000E+00  0.00000000E+00  0.00000000E+00
  0.00000000E+00  0.00000000E+00  0.00000000E+00
  0.00000000E+00  0.00000000E+00  0.00000000E+00
  0.00000000E+00  0.00000000E+00  0.00000000E+00
  0.00000000E+00  0.00000000E+00  0.00000000E+00
  0.00000000E+00  0.00000000E+00  0.00000000E+00
  0.00000000E+00  0.00000000E+00  0.00000000E+00
  0.00000000E+00  0.00000000E+00  0.00000000E+00
  0.00000000E+00  0.00000000E+00  0.00000000E+00
  0.00000000E+00  0.00000000E+00  0.00000000E+00
  0.00000000E+00  0.00000000E+00  0.00000000E+00
  0.00000000E+00  0.00000000E+00  0.00000000E+00
  0.00000000E+00  0.00000000E+00  0.00000000E+00
  0.00000000E+00  0.00000000E+00  0.00000000E+00
  0.00000000E+00  0.00000000E+00  0.00000000E+00
  0.00000000E+00  0.00000000E+00  0.00000000E+00
  0.00000000E+00  0.00000000E+00  0.00000000E+00
  0.00000000E+00  0.00000000E+00  0.00000000E+00
  0.00000000E+00  0.00000000E+00  0.00000000E+00
  0.00000000E+00  0.00000000E+00  0.00000000E+00
  0.00000000E+00  0.00000000E+00  0.00000000E+00
  0.00000000E+00  0.00000000E+00  0.00000000E+00
  0.00000000E+00  0.00000000E+00  0.00000000E+00
  0.00000000E+00  0.00000000E+00  0.00000000E+00
  0.00000000E+00  0.00000000E+00  0.00000000E+00
  0.00000000E+00  0.00000000E+00  0.00000000E+00
  0.00000000E+00  0.00000000E+00  0.00000000E+00
  0.00000000E+00  0.00000000E+00  0.00000000E+00
  0.00000000E+00  0.00000000E+00  0.00000000E+00
  0.00000000E+00  0.00000000E+00  0.00000000E+00
  0.00000000E+00  0.00000000E+00  0.00000000E+00
