Ru  H                                   
   1.00000000000000     
     8.3219397077844786    0.0000000000000000    0.0000000000000000
     0.0000000000000000    8.3219397077844786    0.0000000000000000
     0.0000000000000000    0.0000000000000000   20.8844999999999992
   Ru   H 
    36     1
Direct
  0.1666666666666643  0.1659398212665056  0.3731344722521073
  0.8338081857818959  0.1671415191152241  0.5519622260982274
  0.1666666666666643  0.5000000000000000  0.5482047569109744
  0.5011895785999194  0.5000000000000000  0.5515560105124990
  0.8321437547334163  0.5000000000000000  0.5515560105124990
  0.1666666666666643  0.8345229119332551  0.5515560105124990
  0.4995251475514403  0.8328584808847755  0.5519622260982274
  0.4995251475514403  0.1671415191152241  0.5519622260982274
  0.8338081857818959  0.8328584808847755  0.5519622260982274
  0.3329352164717176 -0.0000000000000000  0.6304456092180093
  0.6666666666666643 -0.0000000000000000  0.6301841635478588
  0.0024496795387674  0.3357830128721032  0.6302004909442799
  0.3308836537945682  0.3357830128721032  0.6302004909442799
  0.6666666666666643  0.3337314501949538  0.6304456092180093
  0.0024496795387674  0.6642169871278967  0.6302004909442799
  0.0003981168616182 -0.0000000000000000  0.6304456092180093
  0.1666666666666643  0.1654770880667449  0.5515560105124990
  0.6666666666666643  0.6667314734390514  0.4521047768171456
  0.3330812501734640  0.6664145835067927  0.4513913595991508
  0.5002952651607211  0.1663714015059431  0.3729169130924287
  0.8330380681726143  0.1663714015059431  0.3729169130924287
  0.1666666666666643  0.5000000000000000  0.3723654269669153
  0.5007268454001587  0.5000000000000000  0.3731344722521073
  0.8326064879331772  0.5000000000000000  0.3731344722521073
  0.1666666666666643  0.8340601787334943  0.3731344722521073
  0.5002952651607211  0.8336285984940571  0.3729169130924287
  0.8330380681726143  0.8336285984940571  0.3729169130924287
 -0.0000648067723873 -0.0000000000000000  0.4521047768171456
  0.3333981401057229 -0.0000000000000000  0.4521047768171456
  0.6666666666666643 -0.0000000000000000  0.4510202805289306
  0.0002520831598716  0.3335854164932074  0.4513913595991508
  0.3330812501734640  0.3335854164932074  0.4513913595991508
  0.6666666666666643  0.3332685265609485  0.4521047768171456
  0.0002520831598716  0.6664145835067927  0.4513913595991508
  0.3308836537945682  0.6642169871278967  0.6302004909442799
  0.6666666666666643  0.6662685498050462  0.6304456092180093
  0.1666666666666643  0.5000000000000000  0.6675410263294299
 
  0.00000000E+00  0.00000000E+00  0.00000000E+00
  0.00000000E+00  0.00000000E+00  0.00000000E+00
  0.00000000E+00  0.00000000E+00  0.00000000E+00
  0.00000000E+00  0.00000000E+00  0.00000000E+00
  0.00000000E+00  0.00000000E+00  0.00000000E+00
  0.00000000E+00  0.00000000E+00  0.00000000E+00
  0.00000000E+00  0.00000000E+00  0.00000000E+00
  0.00000000E+00  0.00000000E+00  0.00000000E+00
  0.00000000E+00  0.00000000E+00  0.00000000E+00
  0.00000000E+00  0.00000000E+00  0.00000000E+00
  0.00000000E+00  0.00000000E+00  0.00000000E+00
  0.00000000E+00  0.00000000E+00  0.00000000E+00
  0.00000000E+00  0.00000000E+00  0.00000000E+00
  0.00000000E+00  0.00000000E+00  0.00000000E+00
  0.00000000E+00  0.00000000E+00  0.00000000E+00
  0.00000000E+00  0.00000000E+00  0.00000000E+00
  0.00000000E+00  0.00000000E+00  0.00000000E+00
  0.00000000E+00  0.00000000E+00  0.00000000E+00
  0.00000000E+00  0.00000000E+00  0.00000000E+00
  0.00000000E+00  0.00000000E+00  0.00000000E+00
  0.00000000E+00  0.00000000E+00  0.00000000E+00
  0.00000000E+00  0.00000000E+00  0.00000000E+00
  0.00000000E+00  0.00000000E+00  0.00000000E+00
  0.00000000E+00  0.00000000E+00  0.00000000E+00
  0.00000000E+00  0.00000000E+00  0.00000000E+00
  0.00000000E+00  0.00000000E+00  0.00000000E+00
  0.00000000E+00  0.00000000E+00  0.00000000E+00
  0.00000000E+00  0.00000000E+00  0.00000000E+00
  0.00000000E+00  0.00000000E+00  0.00000000E+00
  0.00000000E+00  0.00000000E+00  0.00000000E+00
  0.00000000E+00  0.00000000E+00  0.00000000E+00
  0.00000000E+00  0.00000000E+00  0.00000000E+00
  0.00000000E+00  0.00000000E+00  0.00000000E+00
  0.00000000E+00  0.00000000E+00  0.00000000E+00
  0.00000000E+00  0.00000000E+00  0.00000000E+00
  0.00000000E+00  0.00000000E+00  0.00000000E+00
  0.00000000E+00  0.00000000E+00  0.00000000E+00
