Rh  H                                   
   1.00000000000000     
     8.3219397077844786    0.0000000000000000    0.0000000000000000
     0.0000000000000000    8.3219397077844786    0.0000000000000000
     0.0000000000000000    0.0000000000000000   20.8844999999999992
   Rh   H 
    36     1
Direct
  0.1670560996672893  0.1662772336660393  0.3683298650897359
  0.8333333333333357  0.1654312230184476  0.5466639143302674
  0.1679021103148810  0.5000000000000000  0.5466639143302674
  0.4987645563517832  0.5000000000000000  0.5466639143302674
  0.8333333333333357  0.5000000000000000  0.5460798371609306
  0.1648381366660732  0.8315048033327445  0.5465518182159547
  0.5018285300005911  0.8315048033327445  0.5465518182159547
  0.5018285300005911  0.1684951966672554  0.5465518182159547
  0.8333333333333357  0.8345687769815524  0.5466639143302674
  0.3333333333333357 -0.0000000000000000  0.6325242203488342
  0.6657754974304353 -0.0000000000000000  0.6332097764145549
 -0.0010988822984940  0.3344322156318298  0.6329214969941462
  0.3333333333333357  0.3324421640971066  0.6332097764145549
  0.6677655489651585  0.3344322156318298  0.6329214969941462
 -0.0010988822984940  0.6655677843681701  0.6329214969941462
  0.0008911692362290 -0.0000000000000000  0.6332097764145549
  0.1648381366660732  0.1684951966672554  0.5465518182159547
  0.6672815911118116  0.6660517422215170  0.4541358007138404
  0.3333333333333357  0.6671967255853677  0.4547296722104893
  0.4996105669993749  0.1662772336660393  0.3683298650897359
  0.8333333333333357  0.1656143644086364  0.3679490942673286
  0.1677189689246922  0.5000000000000000  0.3679490942673286
  0.4989476977419721  0.5000000000000000  0.3679490942673286
  0.8333333333333357  0.5000000000000000  0.3682417540640967
  0.1670560996672893  0.8337227663339608  0.3683298650897359
  0.4996105669993749  0.8337227663339608  0.3683298650897359
  0.8333333333333357  0.8343856355913635  0.3679490942673286
  0.0005300589187034 -0.0000000000000000  0.4547296722104893
  0.3333333333333357 -0.0000000000000000  0.4552484823930203
  0.6661366077479609 -0.0000000000000000  0.4547296722104893
 -0.0006149244451470  0.3339482577784827  0.4541358007138404
  0.3333333333333357  0.3328032744146322  0.4547296722104893
  0.6672815911118116  0.3339482577784827  0.4541358007138404
 -0.0006149244451470  0.6660517422215170  0.4541358007138404
  0.3333333333333357  0.6675578359028933  0.6332097764145549
  0.6677655489651585  0.6655677843681701  0.6329214969941462
  0.3333333333333357 -0.0000000000000000  0.7082246235678403
 
  0.00000000E+00  0.00000000E+00  0.00000000E+00
  0.00000000E+00  0.00000000E+00  0.00000000E+00
  0.00000000E+00  0.00000000E+00  0.00000000E+00
  0.00000000E+00  0.00000000E+00  0.00000000E+00
  0.00000000E+00  0.00000000E+00  0.00000000E+00
  0.00000000E+00  0.00000000E+00  0.00000000E+00
  0.00000000E+00  0.00000000E+00  0.00000000E+00
  0.00000000E+00  0.00000000E+00  0.00000000E+00
  0.00000000E+00  0.00000000E+00  0.00000000E+00
  0.00000000E+00  0.00000000E+00  0.00000000E+00
  0.00000000E+00  0.00000000E+00  0.00000000E+00
  0.00000000E+00  0.00000000E+00  0.00000000E+00
  0.00000000E+00  0.00000000E+00  0.00000000E+00
  0.00000000E+00  0.00000000E+00  0.00000000E+00
  0.00000000E+00  0.00000000E+00  0.00000000E+00
  0.00000000E+00  0.00000000E+00  0.00000000E+00
  0.00000000E+00  0.00000000E+00  0.00000000E+00
  0.00000000E+00  0.00000000E+00  0.00000000E+00
  0.00000000E+00  0.00000000E+00  0.00000000E+00
  0.00000000E+00  0.00000000E+00  0.00000000E+00
  0.00000000E+00  0.00000000E+00  0.00000000E+00
  0.00000000E+00  0.00000000E+00  0.00000000E+00
  0.00000000E+00  0.00000000E+00  0.00000000E+00
  0.00000000E+00  0.00000000E+00  0.00000000E+00
  0.00000000E+00  0.00000000E+00  0.00000000E+00
  0.00000000E+00  0.00000000E+00  0.00000000E+00
  0.00000000E+00  0.00000000E+00  0.00000000E+00
  0.00000000E+00  0.00000000E+00  0.00000000E+00
  0.00000000E+00  0.00000000E+00  0.00000000E+00
  0.00000000E+00  0.00000000E+00  0.00000000E+00
  0.00000000E+00  0.00000000E+00  0.00000000E+00
  0.00000000E+00  0.00000000E+00  0.00000000E+00
  0.00000000E+00  0.00000000E+00  0.00000000E+00
  0.00000000E+00  0.00000000E+00  0.00000000E+00
  0.00000000E+00  0.00000000E+00  0.00000000E+00
  0.00000000E+00  0.00000000E+00  0.00000000E+00
  0.00000000E+00  0.00000000E+00  0.00000000E+00
