Ir  H                                   
   1.00000000000000     
     8.3219397077844786    0.0000000000000000    0.0000000000000000
     0.0000000000000000    8.3219397077844786    0.0000000000000000
     0.0000000000000000    0.0000000000000000   20.8844999999999992
   Ir   H 
    36     1
Direct
  0.1663678801393232  0.1669654531940054  0.3658470689570030
  0.8333333333333357  0.1655181352945478  0.5476911926267481
  0.1678151980387808  0.5000000000000000  0.5476911926267481
  0.4988514686278835  0.5000000000000000  0.5476911926267481
  0.8333333333333357  0.5000000000000000  0.5467511877178868
  0.1665866965680806  0.8332533632347522  0.5482443176946966
  0.5000799700985835  0.8332533632347522  0.5482443176946966
  0.5000799700985835  0.1667466367652480  0.5482443176946966
  0.8333333333333357  0.8344818647054522  0.5476911926267481
  0.3333333333333357 -0.0000000000000000  0.6370881687223116
  0.6677349189515991 -0.0000000000000000  0.6351173116723848
 -0.0015058347440808  0.3348391680774165  0.6348422558716282
  0.3333333333333357  0.3344015856182703  0.6351173116723848
  0.6681725014107454  0.3348391680774165  0.6348422558716282
 -0.0015058347440808  0.6651608319225832  0.6348422558716282
 -0.0010682522849346 -0.0000000000000000  0.6351173116723848
  0.1665866965680806  0.1667466367652480  0.5482443176946966
  0.6671885195414307  0.6661448137918979  0.4528541050136989
  0.3333333333333357  0.6673892321904326  0.4531473007672099
  0.5002987865273412  0.1669654531940054  0.3658470689570030
  0.8333333333333357  0.1657766164552697  0.3657186067080704
  0.1675567168780589  0.5000000000000000  0.3657186067080704
  0.4991099497886056  0.5000000000000000  0.3657186067080704
  0.8333333333333357  0.5000000000000000  0.3658244854514776
  0.1663678801393232  0.8330345468059945  0.3658470689570030
  0.5002987865273412  0.8330345468059945  0.3658470689570030
  0.8333333333333357  0.8342233835447302  0.3657186067080704
  0.0007225655237683 -0.0000000000000000  0.4531473007672099
  0.3333333333333357 -0.0000000000000000  0.4528920773720523
  0.6659441011428960 -0.0000000000000000  0.4531473007672099
 -0.0005218528747663  0.3338551862081020  0.4528541050136989
  0.3333333333333357  0.3326107678095674  0.4531473007672099
  0.6671885195414307  0.3338551862081020  0.4528541050136989
 -0.0005218528747663  0.6661448137918979  0.4528541050136989
  0.3333333333333357  0.6655984143817295  0.6351173116723848
  0.6681725014107454  0.6651608319225832  0.6348422558716282
  0.3333333333333357 -0.0000000000000000  0.7139405558436449
 
  0.00000000E+00  0.00000000E+00  0.00000000E+00
  0.00000000E+00  0.00000000E+00  0.00000000E+00
  0.00000000E+00  0.00000000E+00  0.00000000E+00
  0.00000000E+00  0.00000000E+00  0.00000000E+00
  0.00000000E+00  0.00000000E+00  0.00000000E+00
  0.00000000E+00  0.00000000E+00  0.00000000E+00
  0.00000000E+00  0.00000000E+00  0.00000000E+00
  0.00000000E+00  0.00000000E+00  0.00000000E+00
  0.00000000E+00  0.00000000E+00  0.00000000E+00
  0.00000000E+00  0.00000000E+00  0.00000000E+00
  0.00000000E+00  0.00000000E+00  0.00000000E+00
  0.00000000E+00  0.00000000E+00  0.00000000E+00
  0.00000000E+00  0.00000000E+00  0.00000000E+00
  0.00000000E+00  0.00000000E+00  0.00000000E+00
  0.00000000E+00  0.00000000E+00  0.00000000E+00
  0.00000000E+00  0.00000000E+00  0.00000000E+00
  0.00000000E+00  0.00000000E+00  0.00000000E+00
  0.00000000E+00  0.00000000E+00  0.00000000E+00
  0.00000000E+00  0.00000000E+00  0.00000000E+00
  0.00000000E+00  0.00000000E+00  0.00000000E+00
  0.00000000E+00  0.00000000E+00  0.00000000E+00
  0.00000000E+00  0.00000000E+00  0.00000000E+00
  0.00000000E+00  0.00000000E+00  0.00000000E+00
  0.00000000E+00  0.00000000E+00  0.00000000E+00
  0.00000000E+00  0.00000000E+00  0.00000000E+00
  0.00000000E+00  0.00000000E+00  0.00000000E+00
  0.00000000E+00  0.00000000E+00  0.00000000E+00
  0.00000000E+00  0.00000000E+00  0.00000000E+00
  0.00000000E+00  0.00000000E+00  0.00000000E+00
  0.00000000E+00  0.00000000E+00  0.00000000E+00
  0.00000000E+00  0.00000000E+00  0.00000000E+00
  0.00000000E+00  0.00000000E+00  0.00000000E+00
  0.00000000E+00  0.00000000E+00  0.00000000E+00
  0.00000000E+00  0.00000000E+00  0.00000000E+00
  0.00000000E+00  0.00000000E+00  0.00000000E+00
  0.00000000E+00  0.00000000E+00  0.00000000E+00
  0.00000000E+00  0.00000000E+00  0.00000000E+00
