Ni  H                                   
   1.00000000000000     
     8.3219397077844786    0.0000000000000000    0.0000000000000000
     0.0000000000000000    8.3219397077844786    0.0000000000000000
     0.0000000000000000    0.0000000000000000   20.8844999999999992
   Ni   H 
    36     1
Direct
  0.1688295776487538  0.1645037556845748  0.3869780046198321
  0.8333333333333357  0.1507768791906274  0.5324488731384726
  0.1825564541427012  0.5000000000000000  0.5324488731384726
  0.4841102125239629  0.5000000000000000  0.5324488731384726
  0.8333333333333357  0.5000000000000000  0.5230215564804260
  0.1798589821526741  0.8465256488193456  0.5446155634992975
  0.4868076845139901  0.8465256488193456  0.5446155634992975
  0.4868076845139901  0.1534743511806545  0.5446155634992975
  0.8333333333333357  0.8492231208093725  0.5324488731384726
  0.3333333333333357  0.0000000000000000  0.6224496568974208
  0.6732357978275648  0.0000000000000000  0.6089369359839268
 -0.0056978531089633  0.3390311864422990  0.5955857888014018
  0.3333333333333357  0.3399024644942362  0.6089369359839268
  0.6723645197756281  0.3390311864422990  0.5955857888014018
 -0.0056978531089633  0.6609688135577005  0.5955857888014018
 -0.0065691311609006  0.0000000000000000  0.6089369359839268
  0.1798589821526742  0.1534743511806545  0.5446155634992975
  0.6480724481900371  0.6852608851432915  0.4669967590493272
  0.3333333333333357  0.6906003428056460  0.4621948153380872
  0.4978370890179106  0.1645037556845748  0.3869780046198321
  0.8333333333333357  0.1605819563877725  0.4013923384645747
  0.1727513769455561  0.5000000000000000  0.4013923384645747
  0.4939152897211082  0.5000000000000000  0.4013923384645747
  0.8333333333333357  0.5000000000000000  0.4073440082329035
  0.1688295776487538  0.8354962443154254  0.3869780046198321
  0.4978370890179106  0.8354962443154254  0.3869780046198321
  0.8333333333333357  0.8394180436122276  0.4013923384645747
  0.0239336761389818  0.0000000000000000  0.4621948153380872
  0.3333333333333357  0.0000000000000000  0.4582937276578180
  0.6427329905276826  0.0000000000000000  0.4621948153380872
  0.0185942184766273  0.3147391148567083  0.4669967590493272
  0.3333333333333357  0.3093996571943540  0.4621948153380872
  0.6480724481900371  0.3147391148567083  0.4669967590493272
  0.0185942184766273  0.6852608851432915  0.4669967590493272
  0.3333333333333357  0.6600975355057638  0.6089369359839268
  0.6723645197756281  0.6609688135577005  0.5955857888014018
  0.3333333333333357  0.0000000000000000  0.6938745093420409
 
  0.00000000E+00  0.00000000E+00  0.00000000E+00
  0.00000000E+00  0.00000000E+00  0.00000000E+00
  0.00000000E+00  0.00000000E+00  0.00000000E+00
  0.00000000E+00  0.00000000E+00  0.00000000E+00
  0.00000000E+00  0.00000000E+00  0.00000000E+00
  0.00000000E+00  0.00000000E+00  0.00000000E+00
  0.00000000E+00  0.00000000E+00  0.00000000E+00
  0.00000000E+00  0.00000000E+00  0.00000000E+00
  0.00000000E+00  0.00000000E+00  0.00000000E+00
  0.00000000E+00  0.00000000E+00  0.00000000E+00
  0.00000000E+00  0.00000000E+00  0.00000000E+00
  0.00000000E+00  0.00000000E+00  0.00000000E+00
  0.00000000E+00  0.00000000E+00  0.00000000E+00
  0.00000000E+00  0.00000000E+00  0.00000000E+00
  0.00000000E+00  0.00000000E+00  0.00000000E+00
  0.00000000E+00  0.00000000E+00  0.00000000E+00
  0.00000000E+00  0.00000000E+00  0.00000000E+00
  0.00000000E+00  0.00000000E+00  0.00000000E+00
  0.00000000E+00  0.00000000E+00  0.00000000E+00
  0.00000000E+00  0.00000000E+00  0.00000000E+00
  0.00000000E+00  0.00000000E+00  0.00000000E+00
  0.00000000E+00  0.00000000E+00  0.00000000E+00
  0.00000000E+00  0.00000000E+00  0.00000000E+00
  0.00000000E+00  0.00000000E+00  0.00000000E+00
  0.00000000E+00  0.00000000E+00  0.00000000E+00
  0.00000000E+00  0.00000000E+00  0.00000000E+00
  0.00000000E+00  0.00000000E+00  0.00000000E+00
  0.00000000E+00  0.00000000E+00  0.00000000E+00
  0.00000000E+00  0.00000000E+00  0.00000000E+00
  0.00000000E+00  0.00000000E+00  0.00000000E+00
  0.00000000E+00  0.00000000E+00  0.00000000E+00
  0.00000000E+00  0.00000000E+00  0.00000000E+00
  0.00000000E+00  0.00000000E+00  0.00000000E+00
  0.00000000E+00  0.00000000E+00  0.00000000E+00
  0.00000000E+00  0.00000000E+00  0.00000000E+00
  0.00000000E+00  0.00000000E+00  0.00000000E+00
  0.00000000E+00  0.00000000E+00  0.00000000E+00
