Pt  H                                   
   1.00000000000000     
     8.3219397077844786    0.0000000000000000    0.0000000000000000
     0.0000000000000000    8.3219397077844786    0.0000000000000000
     0.0000000000000000    0.0000000000000000   20.8844999999999992
   Pt   H 
    36     1
Direct
  0.1666666666666643  0.1664576170289429  0.3576590417850172
  0.8339485681462042  0.1672819014795328  0.5505636752751762
  0.1666666666666643  0.5000000000000000  0.5480484797506572
  0.4999426275193367  0.5000000000000000  0.5500773354020746
  0.8333907058139989  0.5000000000000000  0.5500773354020746
  0.1666666666666643  0.8332759608526725  0.5500773354020746
  0.4993847651871316  0.8327180985204672  0.5505636752751762
  0.4993847651871316  0.1672819014795328  0.5505636752751762
  0.8339485681462042  0.8327180985204672  0.5505636752751762
  0.3333023070893610 -0.0000000000000000  0.6453768185463611
  0.6666666666666643 -0.0000000000000000  0.6456016643313837
  0.0007263757389631  0.3340597090722989  0.6471701580336631
  0.3326069575943725  0.3340597090722989  0.6471701580336631
  0.6666666666666643  0.3333643595773104  0.6453768185463611
  0.0007263757389631  0.6659402909277009  0.6471701580336631
  0.0000310262439747 -0.0000000000000000  0.6453768185463611
  0.1666666666666643  0.1667240391473275  0.5500773354020746
  0.6666666666666643  0.6671232344454140  0.4532101211296012
  0.3338767833924574  0.6672101167257862  0.4529572403757437
  0.4999223888101177  0.1667442778565464  0.3576805171687302
  0.8334109445232178  0.1667442778565464  0.3576805171687302
  0.1666666666666643  0.5000000000000000  0.3580250618336330
  0.5002090496377213  0.5000000000000000  0.3576590417850172
  0.8331242836956144  0.5000000000000000  0.3576590417850172
  0.1666666666666643  0.8335423829710570  0.3576590417850172
  0.4999223888101177  0.8332557221434536  0.3576805171687302
  0.8334109445232178  0.8332557221434536  0.3576805171687302
 -0.0004565677787498 -0.0000000000000000  0.4532101211296012
  0.3337899011120856 -0.0000000000000000  0.4532101211296012
  0.6666666666666643 -0.0000000000000000  0.4530816984496769
 -0.0005434500591219  0.3327898832742140  0.4529572403757437
  0.3338767833924574  0.3327898832742140  0.4529572403757437
  0.6666666666666643  0.3328767655545858  0.4532101211296012
 -0.0005434500591219  0.6672101167257862  0.4529572403757437
  0.3326069575943725  0.6659402909277009  0.6471701580336631
  0.6666666666666643  0.6666356404226897  0.6453768185463611
  0.1666666666666643  0.5000000000000000  0.6760387959345480
 
  0.00000000E+00  0.00000000E+00  0.00000000E+00
  0.00000000E+00  0.00000000E+00  0.00000000E+00
  0.00000000E+00  0.00000000E+00  0.00000000E+00
  0.00000000E+00  0.00000000E+00  0.00000000E+00
  0.00000000E+00  0.00000000E+00  0.00000000E+00
  0.00000000E+00  0.00000000E+00  0.00000000E+00
  0.00000000E+00  0.00000000E+00  0.00000000E+00
  0.00000000E+00  0.00000000E+00  0.00000000E+00
  0.00000000E+00  0.00000000E+00  0.00000000E+00
  0.00000000E+00  0.00000000E+00  0.00000000E+00
  0.00000000E+00  0.00000000E+00  0.00000000E+00
  0.00000000E+00  0.00000000E+00  0.00000000E+00
  0.00000000E+00  0.00000000E+00  0.00000000E+00
  0.00000000E+00  0.00000000E+00  0.00000000E+00
  0.00000000E+00  0.00000000E+00  0.00000000E+00
  0.00000000E+00  0.00000000E+00  0.00000000E+00
  0.00000000E+00  0.00000000E+00  0.00000000E+00
  0.00000000E+00  0.00000000E+00  0.00000000E+00
  0.00000000E+00  0.00000000E+00  0.00000000E+00
  0.00000000E+00  0.00000000E+00  0.00000000E+00
  0.00000000E+00  0.00000000E+00  0.00000000E+00
  0.00000000E+00  0.00000000E+00  0.00000000E+00
  0.00000000E+00  0.00000000E+00  0.00000000E+00
  0.00000000E+00  0.00000000E+00  0.00000000E+00
  0.00000000E+00  0.00000000E+00  0.00000000E+00
  0.00000000E+00  0.00000000E+00  0.00000000E+00
  0.00000000E+00  0.00000000E+00  0.00000000E+00
  0.00000000E+00  0.00000000E+00  0.00000000E+00
  0.00000000E+00  0.00000000E+00  0.00000000E+00
  0.00000000E+00  0.00000000E+00  0.00000000E+00
  0.00000000E+00  0.00000000E+00  0.00000000E+00
  0.00000000E+00  0.00000000E+00  0.00000000E+00
  0.00000000E+00  0.00000000E+00  0.00000000E+00
  0.00000000E+00  0.00000000E+00  0.00000000E+00
  0.00000000E+00  0.00000000E+00  0.00000000E+00
  0.00000000E+00  0.00000000E+00  0.00000000E+00
  0.00000000E+00  0.00000000E+00  0.00000000E+00
