Rh  H                                   
   1.00000000000000     
     8.3219397077844786    0.0000000000000000    0.0000000000000000
     0.0000000000000000    8.3219397077844786    0.0000000000000000
     0.0000000000000000    0.0000000000000000   20.8844999999999992
   Rh   H 
    36     1
Direct
  0.1666666666666643  0.1666666666666643  0.3690637836986044
  0.8336840382620413  0.1666666666666643  0.5467847318531862
  0.1666666666666643  0.4998258588441896  0.5469900410468186
  0.5008426101672719  0.4998329592858612  0.5471288657797744
  0.8324907231660637  0.4998329592858612  0.5471288657797744
  0.1666666666666643  0.8335074744891462  0.5469900410468186
  0.5008426101672719  0.8335003740474743  0.5471288657797744
  0.4996492950712946  0.1666666666666643  0.5467847318531862
  0.8324907231660637  0.8335003740474743  0.5471288657797744
  0.3339656884989350  0.0016956609498902  0.6333114808166114
  0.6666666666666643  0.0003466463065060  0.6333995914019105
 -0.0006323551655993  0.3316376723834455  0.6333114808166114
  0.3339656884989350  0.3316376723834455  0.6333114808166114
  0.6666666666666643  0.3329866870268298  0.6333995914019105
  0.0010683323859595  0.6666666666666643  0.6348426457434151
 -0.0006323551655993  0.0016956609498902  0.6333114808166114
  0.1666666666666643  0.1666666666666643  0.5465420190184557
  0.6666666666666643  0.6666666666666643  0.4551219584546694
  0.3337214550328846  0.6666666666666643  0.4553188802486076
  0.4986865679921448  0.1666666666666643  0.3688590833797527
  0.8346467653411911  0.1666666666666643  0.3688590833797527
  0.1666666666666643  0.5000511773875879  0.3687186160459055
  0.4995895964911550  0.4999497464990726  0.3686021663229197
  0.8337437368421807  0.4999497464990726  0.3686021663229197
  0.1666666666666643  0.8332821559457479  0.3687186160459055
  0.4995895964911550  0.8333835868342631  0.3686021663229197
  0.8337437368421807  0.8333835868342631  0.3686021663229197
 -0.0000542324937719 -0.0007754057633329  0.4553786426370556
  0.3333875658271075 -0.0007754057633329  0.4553786426370556
  0.6666666666666643  0.0007826155391384  0.4545555045401660
 -0.0000542324937719  0.3341087390966686  0.4553786426370556
  0.3333875658271075  0.3341087390966686  0.4553786426370556
  0.6666666666666643  0.3325507177941974  0.4545555045401660
 -0.0003881216995488  0.6666666666666643  0.4553188802486076
  0.3322650009473762  0.6666666666666643  0.6348426457434151
  0.6666666666666643  0.6666666666666643  0.6335897692130018
  0.1666666666666643  0.6666666666666643  0.6873443293502940
 
  0.00000000E+00  0.00000000E+00  0.00000000E+00
  0.00000000E+00  0.00000000E+00  0.00000000E+00
  0.00000000E+00  0.00000000E+00  0.00000000E+00
  0.00000000E+00  0.00000000E+00  0.00000000E+00
  0.00000000E+00  0.00000000E+00  0.00000000E+00
  0.00000000E+00  0.00000000E+00  0.00000000E+00
  0.00000000E+00  0.00000000E+00  0.00000000E+00
  0.00000000E+00  0.00000000E+00  0.00000000E+00
  0.00000000E+00  0.00000000E+00  0.00000000E+00
  0.00000000E+00  0.00000000E+00  0.00000000E+00
  0.00000000E+00  0.00000000E+00  0.00000000E+00
  0.00000000E+00  0.00000000E+00  0.00000000E+00
  0.00000000E+00  0.00000000E+00  0.00000000E+00
  0.00000000E+00  0.00000000E+00  0.00000000E+00
  0.00000000E+00  0.00000000E+00  0.00000000E+00
  0.00000000E+00  0.00000000E+00  0.00000000E+00
  0.00000000E+00  0.00000000E+00  0.00000000E+00
  0.00000000E+00  0.00000000E+00  0.00000000E+00
  0.00000000E+00  0.00000000E+00  0.00000000E+00
  0.00000000E+00  0.00000000E+00  0.00000000E+00
  0.00000000E+00  0.00000000E+00  0.00000000E+00
  0.00000000E+00  0.00000000E+00  0.00000000E+00
  0.00000000E+00  0.00000000E+00  0.00000000E+00
  0.00000000E+00  0.00000000E+00  0.00000000E+00
  0.00000000E+00  0.00000000E+00  0.00000000E+00
  0.00000000E+00  0.00000000E+00  0.00000000E+00
  0.00000000E+00  0.00000000E+00  0.00000000E+00
  0.00000000E+00  0.00000000E+00  0.00000000E+00
  0.00000000E+00  0.00000000E+00  0.00000000E+00
  0.00000000E+00  0.00000000E+00  0.00000000E+00
  0.00000000E+00  0.00000000E+00  0.00000000E+00
  0.00000000E+00  0.00000000E+00  0.00000000E+00
  0.00000000E+00  0.00000000E+00  0.00000000E+00
  0.00000000E+00  0.00000000E+00  0.00000000E+00
  0.00000000E+00  0.00000000E+00  0.00000000E+00
  0.00000000E+00  0.00000000E+00  0.00000000E+00
  0.00000000E+00  0.00000000E+00  0.00000000E+00
