Pd  H                                   
   1.00000000000000     
     8.3219397077844786    0.0000000000000000    0.0000000000000000
     0.0000000000000000    8.3219397077844786    0.0000000000000000
     0.0000000000000000    0.0000000000000000   20.8844999999999992
   Pd   H 
    36     1
Direct
  0.1668255616220739  0.1665077717112547  0.3560885933274976
  0.8333333333333357  0.1664136081828506  0.5485450045385917
  0.1669197251504780  0.5000000000000000  0.5485450045385917
  0.4997469415161864  0.5000000000000000  0.5485450045385917
  0.8333333333333357  0.5000000000000000  0.5480228800838692
  0.1668920231396937  0.8335586898063652  0.5490718115007986
  0.4997746435269707  0.8335586898063652  0.5490718115007986
  0.4997746435269707  0.1664413101936349  0.5490718115007986
  0.8333333333333357  0.8335863918171494  0.5485450045385917
  0.3333333333333357  0.0000000000000000  0.6487422794288715
  0.6654426886911180  0.0000000000000000  0.6450024854067843
 -0.0007174920770416  0.3340508254103773  0.6443151248286035
  0.3333333333333357  0.3321093553577892  0.6450024854067843
  0.6673841587437059  0.3340508254103773  0.6443151248286035
 -0.0007174920770416  0.6659491745896227  0.6443151248286035
  0.0012239779755464  0.0000000000000000  0.6450024854067843
  0.1668920231396937  0.1664413101936349  0.5490718115007986
  0.6666312425618119  0.6667020907715167  0.4515212305992469
  0.3333333333333357  0.6672431496534991  0.4524840779482883
  0.4998411050445906  0.1665077717112547  0.3560885933274976
  0.8333333333333357  0.1661338207990821  0.3560866992471893
  0.1671995125342465  0.5000000000000000  0.3560866992471893
  0.4994671541324179  0.5000000000000000  0.3560866992471893
  0.8333333333333357  0.5000000000000000  0.3555970789557193
  0.1668255616220739  0.8334922282887451  0.3560885933274976
  0.4998411050445906  0.8334922282887451  0.3560885933274976
  0.8333333333333357  0.8338661792009179  0.3560866992471893
  0.0005764829868345  0.0000000000000000  0.4524840779482883
  0.3333333333333357  0.0000000000000000  0.4522108697520250
  0.6660901836798295  0.0000000000000000  0.4524840779482883
  0.0000354241048524  0.3332979092284832  0.4515212305992469
  0.3333333333333357  0.3327568503465013  0.4524840779482883
  0.6666312425618119  0.3332979092284832  0.4515212305992469
  0.0000354241048524  0.6667020907715167  0.4515212305992469
  0.3333333333333357  0.6678906446422106  0.6450024854067843
  0.6673841587437059  0.6659491745896227  0.6443151248286035
  0.3333333333333357  0.0000000000000000  0.7229650393010043
 
  0.00000000E+00  0.00000000E+00  0.00000000E+00
  0.00000000E+00  0.00000000E+00  0.00000000E+00
  0.00000000E+00  0.00000000E+00  0.00000000E+00
  0.00000000E+00  0.00000000E+00  0.00000000E+00
  0.00000000E+00  0.00000000E+00  0.00000000E+00
  0.00000000E+00  0.00000000E+00  0.00000000E+00
  0.00000000E+00  0.00000000E+00  0.00000000E+00
  0.00000000E+00  0.00000000E+00  0.00000000E+00
  0.00000000E+00  0.00000000E+00  0.00000000E+00
  0.00000000E+00  0.00000000E+00  0.00000000E+00
  0.00000000E+00  0.00000000E+00  0.00000000E+00
  0.00000000E+00  0.00000000E+00  0.00000000E+00
  0.00000000E+00  0.00000000E+00  0.00000000E+00
  0.00000000E+00  0.00000000E+00  0.00000000E+00
  0.00000000E+00  0.00000000E+00  0.00000000E+00
  0.00000000E+00  0.00000000E+00  0.00000000E+00
  0.00000000E+00  0.00000000E+00  0.00000000E+00
  0.00000000E+00  0.00000000E+00  0.00000000E+00
  0.00000000E+00  0.00000000E+00  0.00000000E+00
  0.00000000E+00  0.00000000E+00  0.00000000E+00
  0.00000000E+00  0.00000000E+00  0.00000000E+00
  0.00000000E+00  0.00000000E+00  0.00000000E+00
  0.00000000E+00  0.00000000E+00  0.00000000E+00
  0.00000000E+00  0.00000000E+00  0.00000000E+00
  0.00000000E+00  0.00000000E+00  0.00000000E+00
  0.00000000E+00  0.00000000E+00  0.00000000E+00
  0.00000000E+00  0.00000000E+00  0.00000000E+00
  0.00000000E+00  0.00000000E+00  0.00000000E+00
  0.00000000E+00  0.00000000E+00  0.00000000E+00
  0.00000000E+00  0.00000000E+00  0.00000000E+00
  0.00000000E+00  0.00000000E+00  0.00000000E+00
  0.00000000E+00  0.00000000E+00  0.00000000E+00
  0.00000000E+00  0.00000000E+00  0.00000000E+00
  0.00000000E+00  0.00000000E+00  0.00000000E+00
  0.00000000E+00  0.00000000E+00  0.00000000E+00
  0.00000000E+00  0.00000000E+00  0.00000000E+00
  0.00000000E+00  0.00000000E+00  0.00000000E+00
