Ni                                      
   1.00000000000000     
     8.3219397077844786    0.0000000000000000    0.0000000000000000
     0.0000000000000000    8.3219397077844786    0.0000000000000000
     0.0000000000000000    0.0000000000000000   20.8844999999999992
   Ni
    36
Direct
  0.1666666666666643  0.1666666666666643  0.3941850274568655
  0.8333333333333357  0.1666666666666643  0.5374322271424276
  0.1666666666666643  0.5000000000000000  0.5374322271424276
  0.5000000000000000  0.5000000000000000  0.5374322271424276
  0.8333333333333357  0.5000000000000000  0.5374322271424276
  0.1666666666666643  0.8333333333333357  0.5374322271424276
  0.5000000000000000  0.8333333333333357  0.5374322271424276
  0.5000000000000000  0.1666666666666643  0.5374322271424276
  0.8333333333333357  0.8333333333333357  0.5374322271424276
  0.3333333333333357  0.0000000000000000  0.6058149725431345
  0.6666666666666643 -0.0000000000000000  0.6058149725431345
 -0.0000000000000000  0.3333333333333357  0.6058149725431345
  0.3333333333333357  0.3333333333333357  0.6058149725431345
  0.6666666666666643  0.3333333333333357  0.6058149725431345
 -0.0000000000000000  0.6666666666666643  0.6058149725431345
  0.0000000000000000  0.0000000000000000  0.6058149725431345
  0.1666666666666643  0.1666666666666643  0.5374322271424276
  0.6666666666666643  0.6666666666666643  0.4625677728575724
  0.3333333333333357  0.6666666666666643  0.4625677728575724
  0.5000000000000000  0.1666666666666643  0.3941850274568655
  0.8333333333333357  0.1666666666666643  0.3941850274568655
  0.1666666666666643  0.5000000000000000  0.3941850274568655
  0.5000000000000000  0.5000000000000000  0.3941850274568655
  0.8333333333333357  0.5000000000000000  0.3941850274568655
  0.1666666666666643  0.8333333333333357  0.3941850274568655
  0.5000000000000000  0.8333333333333357  0.3941850274568655
  0.8333333333333357  0.8333333333333357  0.3941850274568655
  0.0000000000000000 -0.0000000000000000  0.4625677728575724
  0.3333333333333357  0.0000000000000000  0.4625677728575724
  0.6666666666666643 -0.0000000000000000  0.4625677728575724
 -0.0000000000000000  0.3333333333333357  0.4625677728575724
  0.3333333333333357  0.3333333333333357  0.4625677728575724
  0.6666666666666643  0.3333333333333357  0.4625677728575724
  0.0000000000000000  0.6666666666666643  0.4625677728575724
  0.3333333333333357  0.6666666666666643  0.6058149725431345
  0.6666666666666643  0.6666666666666643  0.6058149725431345
 
  0.00000000E+00  0.00000000E+00  0.00000000E+00
  0.00000000E+00  0.00000000E+00  0.00000000E+00
  0.00000000E+00  0.00000000E+00  0.00000000E+00
  0.00000000E+00  0.00000000E+00  0.00000000E+00
  0.00000000E+00  0.00000000E+00  0.00000000E+00
  0.00000000E+00  0.00000000E+00  0.00000000E+00
  0.00000000E+00  0.00000000E+00  0.00000000E+00
  0.00000000E+00  0.00000000E+00  0.00000000E+00
  0.00000000E+00  0.00000000E+00  0.00000000E+00
  0.00000000E+00  0.00000000E+00  0.00000000E+00
  0.00000000E+00  0.00000000E+00  0.00000000E+00
  0.00000000E+00  0.00000000E+00  0.00000000E+00
  0.00000000E+00  0.00000000E+00  0.00000000E+00
  0.00000000E+00  0.00000000E+00  0.00000000E+00
  0.00000000E+00  0.00000000E+00  0.00000000E+00
  0.00000000E+00  0.00000000E+00  0.00000000E+00
  0.00000000E+00  0.00000000E+00  0.00000000E+00
  0.00000000E+00  0.00000000E+00  0.00000000E+00
  0.00000000E+00  0.00000000E+00  0.00000000E+00
  0.00000000E+00  0.00000000E+00  0.00000000E+00
  0.00000000E+00  0.00000000E+00  0.00000000E+00
  0.00000000E+00  0.00000000E+00  0.00000000E+00
  0.00000000E+00  0.00000000E+00  0.00000000E+00
  0.00000000E+00  0.00000000E+00  0.00000000E+00
  0.00000000E+00  0.00000000E+00  0.00000000E+00
  0.00000000E+00  0.00000000E+00  0.00000000E+00
  0.00000000E+00  0.00000000E+00  0.00000000E+00
  0.00000000E+00  0.00000000E+00  0.00000000E+00
  0.00000000E+00  0.00000000E+00  0.00000000E+00
  0.00000000E+00  0.00000000E+00  0.00000000E+00
  0.00000000E+00  0.00000000E+00  0.00000000E+00
  0.00000000E+00  0.00000000E+00  0.00000000E+00
  0.00000000E+00  0.00000000E+00  0.00000000E+00
  0.00000000E+00  0.00000000E+00  0.00000000E+00
  0.00000000E+00  0.00000000E+00  0.00000000E+00
  0.00000000E+00  0.00000000E+00  0.00000000E+00
