Co Fe Ni Pt Ru                          
   1.00000000000000     
     8.3219397077844786    0.0000000000000000    0.0000000000000000
     0.0000000000000000    8.3219397077844786    0.0000000000000000
     0.0000000000000000    0.0000000000000000   20.8844999999999992
   Co   Fe   Ni   Pt   Ru
     7     7     7     7     8
Direct
  0.6741101109928618  0.6579944243341704  0.4684176959781534
  0.6676047327794111  0.3268563988163332  0.6146103223869133
  0.8427462744066360  0.8411610962953553  0.5442453477807414
  0.8476540140382042  0.1648585915579610  0.5446273991732745
  0.4936730554866650  0.1618554464717296  0.5453194869658798
  0.1549642607526202  0.1654107718064686  0.5426367190011344
  0.3252632284234055  0.6716767134623912  0.6094927565934709
 -0.0038237130892366  0.0021557471405885  0.6203787108676319
  0.1539214648849185  0.8357641966457420  0.5416757472374368
  0.4956976461780190  0.4935461666283820  0.5481190074335787
  0.6783351312369138  0.6744253197896989  0.6132491331752846
  0.3284432311007390  0.0095267836914037  0.4611861197772690
  0.1957801447700751  0.8392788077282365  0.3794450748768323
  0.5030608873134623  0.8408786665542520  0.3916775426354608
  0.6758389548967630  0.0086568902372690  0.4644519853852381
  0.0133404596607725  0.6732492303876718  0.6202020167967696
  0.3207616996991394 -0.0030007727078020  0.6156460090106506
  0.1828164010626114  0.5025523413233807  0.3736542527725704
  0.8123735691480816  0.5049838938913576  0.3759174748425099
  0.1607089438034593  0.4898797782921099  0.5454103615501814
  0.1823810127142992  0.1613773986549238  0.3743027041574005
 -0.0012764496054925  0.0027310408383650  0.4504161622977901
  0.0039622071585712  0.6600734862990859  0.4535404203982822
  0.6661927246666823  0.3366329841761815  0.4621870942540363
  0.3261857078753845  0.3331007993895116  0.4573508943760140
  0.6708839609945760  0.0079045487708913  0.6245363560676457
  0.0080992857187072  0.3240067251948914  0.6313473702847351
  0.7989271159915560  0.8258839319616055  0.3737200124879392
  0.3323764070455722  0.6624707619339495  0.4616074441830108
  0.5038915264868884  0.5255208803200250  0.3800605558895249
  0.4983855115670546  0.8392272082015090  0.5414524647736422
  0.8035529140600246  0.1637433861116570  0.3734116173790207
  0.3346839128317460  0.3197196744080743  0.6205748679568546
  0.5058067581953534  0.1489891510349303  0.3790129981035446
 -0.0057706498541881  0.3298335221916892  0.4466509891429256
  0.8484475566077441  0.4970740081660085  0.5494648840066533
 
  0.00000000E+00  0.00000000E+00  0.00000000E+00
  0.00000000E+00  0.00000000E+00  0.00000000E+00
  0.00000000E+00  0.00000000E+00  0.00000000E+00
  0.00000000E+00  0.00000000E+00  0.00000000E+00
  0.00000000E+00  0.00000000E+00  0.00000000E+00
  0.00000000E+00  0.00000000E+00  0.00000000E+00
  0.00000000E+00  0.00000000E+00  0.00000000E+00
  0.00000000E+00  0.00000000E+00  0.00000000E+00
  0.00000000E+00  0.00000000E+00  0.00000000E+00
  0.00000000E+00  0.00000000E+00  0.00000000E+00
  0.00000000E+00  0.00000000E+00  0.00000000E+00
  0.00000000E+00  0.00000000E+00  0.00000000E+00
  0.00000000E+00  0.00000000E+00  0.00000000E+00
  0.00000000E+00  0.00000000E+00  0.00000000E+00
  0.00000000E+00  0.00000000E+00  0.00000000E+00
  0.00000000E+00  0.00000000E+00  0.00000000E+00
  0.00000000E+00  0.00000000E+00  0.00000000E+00
  0.00000000E+00  0.00000000E+00  0.00000000E+00
  0.00000000E+00  0.00000000E+00  0.00000000E+00
  0.00000000E+00  0.00000000E+00  0.00000000E+00
  0.00000000E+00  0.00000000E+00  0.00000000E+00
  0.00000000E+00  0.00000000E+00  0.00000000E+00
  0.00000000E+00  0.00000000E+00  0.00000000E+00
  0.00000000E+00  0.00000000E+00  0.00000000E+00
  0.00000000E+00  0.00000000E+00  0.00000000E+00
  0.00000000E+00  0.00000000E+00  0.00000000E+00
  0.00000000E+00  0.00000000E+00  0.00000000E+00
  0.00000000E+00  0.00000000E+00  0.00000000E+00
  0.00000000E+00  0.00000000E+00  0.00000000E+00
  0.00000000E+00  0.00000000E+00  0.00000000E+00
  0.00000000E+00  0.00000000E+00  0.00000000E+00
  0.00000000E+00  0.00000000E+00  0.00000000E+00
  0.00000000E+00  0.00000000E+00  0.00000000E+00
  0.00000000E+00  0.00000000E+00  0.00000000E+00
  0.00000000E+00  0.00000000E+00  0.00000000E+00
  0.00000000E+00  0.00000000E+00  0.00000000E+00
