Co Fe Ni Pt Ru                          
   1.00000000000000     
     8.3219397077844786    0.0000000000000000    0.0000000000000000
     0.0000000000000000    8.3219397077844786    0.0000000000000000
     0.0000000000000000    0.0000000000000000   20.8844999999999992
   Co   Fe   Ni   Pt   Ru
     7     7     8     7     7
Direct
 -0.0101895404888976  0.3190617472538498  0.6199110250810880
  0.8309424772025829  0.1616233117283018  0.5427425984880223
  0.3257562468075776  0.0056345477703217  0.6119032722341609
  0.8542931141722726  0.8170290999107805  0.3750799009767318
  0.8442252979390766  0.4962170554323097  0.5456513088129709
  0.1739256711255824  0.5323580754986408  0.3823779584321397
  0.8120641826865237  0.1806707575437915  0.3760416523176999
  0.6739532281651872  0.3328007827537384  0.4590808192494329
  0.4598607207017062  0.8383376434400417  0.3804601687013267
  0.3298679153334715 -0.0001615719786165  0.4624543786193539
  0.1575551369702126  0.1705477362096929  0.5413662271935492
  0.3166652629329180  0.7041765953595468  0.6221430585582863
  0.5218848082878473  0.4735910187450075  0.3734766248786289
  0.3330860380774679  0.6656015636352565  0.4597505871136722
 -0.0060284792996073  0.6793142348779281  0.6214834462883372
  0.5094311528440284  0.1655378666727590  0.5418928884456451
  0.8325534342451140  0.5023060056000299  0.3765686689386529
  0.1614159898033376  0.8329792246534078  0.5367468648221476
  0.3302874359485629  0.3025106569546409  0.6188297070644091
  0.1633984123604154  0.8281597418891361  0.3873713442747800
 -0.0093960091615002  0.6671349195201774  0.4590945101930599
  0.1872826746803251  0.1409685143808136  0.3788257133829890
  0.6609512512910724  0.0154556542306887  0.6301930506431614
  0.0132430548687613  0.0031501866390453  0.6251806020332911
  0.6650071524148714  0.6679394674697954  0.4501178125404377
  0.1604458436167533  0.5034962685321420  0.5497791490423697
  0.3363521908774832  0.3351561167160076  0.4548689709014377
  0.0020401268453256  0.3300556896774769  0.4492945896075610
  0.4958349718534816  0.5034267103897497  0.5510708695161628
  0.5096483471989753  0.8339013679115695  0.5461384532546010
  0.8253891389798955  0.8435847842717856  0.5446510046952493
  0.6737571180401173 -0.0083523219862450  0.4484114562942908
 -0.0152350766069029  0.0026052120935214  0.4508071289539125
  0.6864565779969106  0.3336844038495816  0.6222054183119223
  0.5061852759365845  0.1550183046074435  0.3795080248894345
  0.6870888553524662  0.6644786277458827  0.6245207452490851
 
  0.00000000E+00  0.00000000E+00  0.00000000E+00
  0.00000000E+00  0.00000000E+00  0.00000000E+00
  0.00000000E+00  0.00000000E+00  0.00000000E+00
  0.00000000E+00  0.00000000E+00  0.00000000E+00
  0.00000000E+00  0.00000000E+00  0.00000000E+00
  0.00000000E+00  0.00000000E+00  0.00000000E+00
  0.00000000E+00  0.00000000E+00  0.00000000E+00
  0.00000000E+00  0.00000000E+00  0.00000000E+00
  0.00000000E+00  0.00000000E+00  0.00000000E+00
  0.00000000E+00  0.00000000E+00  0.00000000E+00
  0.00000000E+00  0.00000000E+00  0.00000000E+00
  0.00000000E+00  0.00000000E+00  0.00000000E+00
  0.00000000E+00  0.00000000E+00  0.00000000E+00
  0.00000000E+00  0.00000000E+00  0.00000000E+00
  0.00000000E+00  0.00000000E+00  0.00000000E+00
  0.00000000E+00  0.00000000E+00  0.00000000E+00
  0.00000000E+00  0.00000000E+00  0.00000000E+00
  0.00000000E+00  0.00000000E+00  0.00000000E+00
  0.00000000E+00  0.00000000E+00  0.00000000E+00
  0.00000000E+00  0.00000000E+00  0.00000000E+00
  0.00000000E+00  0.00000000E+00  0.00000000E+00
  0.00000000E+00  0.00000000E+00  0.00000000E+00
  0.00000000E+00  0.00000000E+00  0.00000000E+00
  0.00000000E+00  0.00000000E+00  0.00000000E+00
  0.00000000E+00  0.00000000E+00  0.00000000E+00
  0.00000000E+00  0.00000000E+00  0.00000000E+00
  0.00000000E+00  0.00000000E+00  0.00000000E+00
  0.00000000E+00  0.00000000E+00  0.00000000E+00
  0.00000000E+00  0.00000000E+00  0.00000000E+00
  0.00000000E+00  0.00000000E+00  0.00000000E+00
  0.00000000E+00  0.00000000E+00  0.00000000E+00
  0.00000000E+00  0.00000000E+00  0.00000000E+00
  0.00000000E+00  0.00000000E+00  0.00000000E+00
  0.00000000E+00  0.00000000E+00  0.00000000E+00
  0.00000000E+00  0.00000000E+00  0.00000000E+00
  0.00000000E+00  0.00000000E+00  0.00000000E+00
