Co Fe Ni Pd Pt Ru                       
   1.00000000000000     
     5.5479598051896524    0.0000000000000000    0.0000000000000000
     0.0000000000000000    5.5479598051896524    0.0000000000000000
     0.0000000000000000    0.0000000000000000   28.7304999999999993
   Co   Fe   Ni   Pd   Pt   Ru
     3     3     3    16     4     3
Selective dynamics
Direct
  0.7809202027504115  0.7530114297175053  0.6583510892145701   T   T   T
  0.2296428773223257  0.7425000242470360  0.6600072692527503   T   T   T
  0.5092965114568153  0.0044494775395379  0.7057715119359254   T   T   T
  0.7642202527178920  0.2666930999636810  0.6595986421135362   T   T   T
  0.4773587667412643  0.4988608843719114  0.5940279532187780   T   T   T
  0.9848973182953025  0.9861825902999389  0.7132948338386720   T   T   T
  0.0070886325214165  0.5057116722913746  0.5959517054436914   T   T   T
  0.9976150549302376  0.5079508280489593  0.7168853405494932   T   T   T
  0.2533208673607106  0.2581760855660614  0.5342359989796879   T   T   T
  0.2500000000000000  0.2500000000000000  0.2610466229268553   F   F   F
  0.0000000000000000  0.5000000000000000  0.4658638032752620   F   F   F
  0.5000000000000000  0.0000000000000000  0.4658638032752620   F   F   F
  0.5000000000000000  0.5000000000000000  0.4658638032752620   F   F   F
  0.7500000000000000  0.7500000000000000  0.3975914098257931   F   F   F
  0.7500000000000000  0.2500000000000000  0.2610466229268553   F   F   F
  0.2500000000000000  0.7500000000000000  0.2610466229268553   F   F   F
  0.7500000000000000  0.7500000000000000  0.2610466229268553   F   F   F
  0.0000000000000000  0.0000000000000000  0.3293190163763242   F   F   F
  0.0000000000000000  0.0000000000000000  0.4658638032752620   F   F   F
  0.5000000000000000  0.0000000000000000  0.3293190163763242   F   F   F
  0.5000000000000000  0.5000000000000000  0.3293190163763242   F   F   F
  0.2500000000000000  0.2500000000000000  0.3975914098257931   F   F   F
  0.7500000000000000  0.2500000000000000  0.3975914098257931   F   F   F
  0.2500000000000000  0.7500000000000000  0.3975914098257931   F   F   F
  0.0000000000000000  0.5000000000000000  0.3293190163763242   F   F   F
  0.5007504443527973  0.9944694784332316  0.6013780122838162   T   T   T
  0.7486325898180329  0.7448878335962058  0.5350688659835987   T   T   T
  0.7537896151502897  0.2518760994692415  0.5355587623729178   T   T   T
  0.5128610252649799  0.5211184792683202  0.7162071512415527   T   T   T
  0.0188218331311628  0.9938273308730892  0.5975355865887239   T   T   T
  0.2330551454747703  0.2676313041906691  0.6588453226112111   T   T   T
  0.2442157913177698  0.7563842482085665  0.5341643228543083   T   T   T
 
  0.00000000E+00  0.00000000E+00  0.00000000E+00
  0.00000000E+00  0.00000000E+00  0.00000000E+00
  0.00000000E+00  0.00000000E+00  0.00000000E+00
  0.00000000E+00  0.00000000E+00  0.00000000E+00
  0.00000000E+00  0.00000000E+00  0.00000000E+00
  0.00000000E+00  0.00000000E+00  0.00000000E+00
  0.00000000E+00  0.00000000E+00  0.00000000E+00
  0.00000000E+00  0.00000000E+00  0.00000000E+00
  0.00000000E+00  0.00000000E+00  0.00000000E+00
  0.00000000E+00  0.00000000E+00  0.00000000E+00
  0.00000000E+00  0.00000000E+00  0.00000000E+00
  0.00000000E+00  0.00000000E+00  0.00000000E+00
  0.00000000E+00  0.00000000E+00  0.00000000E+00
  0.00000000E+00  0.00000000E+00  0.00000000E+00
  0.00000000E+00  0.00000000E+00  0.00000000E+00
  0.00000000E+00  0.00000000E+00  0.00000000E+00
  0.00000000E+00  0.00000000E+00  0.00000000E+00
  0.00000000E+00  0.00000000E+00  0.00000000E+00
  0.00000000E+00  0.00000000E+00  0.00000000E+00
  0.00000000E+00  0.00000000E+00  0.00000000E+00
  0.00000000E+00  0.00000000E+00  0.00000000E+00
  0.00000000E+00  0.00000000E+00  0.00000000E+00
  0.00000000E+00  0.00000000E+00  0.00000000E+00
  0.00000000E+00  0.00000000E+00  0.00000000E+00
  0.00000000E+00  0.00000000E+00  0.00000000E+00
  0.00000000E+00  0.00000000E+00  0.00000000E+00
  0.00000000E+00  0.00000000E+00  0.00000000E+00
  0.00000000E+00  0.00000000E+00  0.00000000E+00
  0.00000000E+00  0.00000000E+00  0.00000000E+00
  0.00000000E+00  0.00000000E+00  0.00000000E+00
  0.00000000E+00  0.00000000E+00  0.00000000E+00
  0.00000000E+00  0.00000000E+00  0.00000000E+00
