Co Fe Ni Pd Pt Ru                       
   1.00000000000000     
     5.5479598051896524    0.0000000000000000    0.0000000000000000
     0.0000000000000000    5.5479598051896524    0.0000000000000000
     0.0000000000000000    0.0000000000000000   28.7304999999999993
   Co   Fe   Ni   Pd   Pt   Ru
     3     3     3    16     4     3
Selective dynamics
Direct
  0.7470925238012969  0.7454993221251327  0.6477224997333939   T   T   T
  0.2510044837743162  0.7311324598699797  0.6481328943819701   T   T   T
  0.2409479101301074  0.7362907670565355  0.5289370328563326   T   T   T
  0.7495350619000085  0.2587299829260344  0.6488435376680883   T   T   T
  0.4906037073605276  0.5097745877315444  0.5862896334702318   T   T   T
  0.7587331914047460  0.2584888665171211  0.5281187991872953   T   T   T
 -0.0074987173948810  0.5063757100537466  0.5863510751619433   T   T   T
  0.7563961706657190  0.7404085506756135  0.5276958541701655   T   T   T
  0.2464096435950658  0.2630714824074142  0.5285060830563573   T   T   T
  0.2500000000000000  0.2500000000000000  0.2610466229268553   F   F   F
  0.0000000000000000  0.5000000000000000  0.4658638032752620   F   F   F
  0.5000000000000000  0.0000000000000000  0.4658638032752620   F   F   F
  0.5000000000000000  0.5000000000000000  0.4658638032752620   F   F   F
  0.7500000000000000  0.7500000000000000  0.3975914098257931   F   F   F
  0.7500000000000000  0.2500000000000000  0.2610466229268553   F   F   F
  0.2500000000000000  0.7500000000000000  0.2610466229268553   F   F   F
  0.7500000000000000  0.7500000000000000  0.2610466229268553   F   F   F
  0.0000000000000000  0.0000000000000000  0.3293190163763242   F   F   F
  0.0000000000000000  0.0000000000000000  0.4658638032752620   F   F   F
  0.5000000000000000  0.0000000000000000  0.3293190163763242   F   F   F
  0.5000000000000000  0.5000000000000000  0.3293190163763242   F   F   F
  0.2500000000000000  0.2500000000000000  0.3975914098257931   F   F   F
  0.7500000000000000  0.2500000000000000  0.3975914098257931   F   F   F
  0.2500000000000000  0.7500000000000000  0.3975914098257931   F   F   F
  0.0000000000000000  0.5000000000000000  0.3293190163763242   F   F   F
  0.5058961639379523 -0.0013444670328099  0.5851239666021560   T   T   T
 -0.0034315025938914  0.5000603115669853  0.7105752313302428   T   T   T
 -0.0103302250986237 -0.0069201029023211  0.7084130910106853   T   T   T
  0.5010740802328906  0.5078982603188421  0.7107610206564321   T   T   T
  0.0090416239099912 -0.0029811649046499  0.5876654600856250   T   T   T
  0.2518205603723923  0.2490176755486060  0.6475904846287456   T   T   T
  0.4973143107979560  0.0019546505311405  0.7044389706426711   T   T   T
 
  0.00000000E+00  0.00000000E+00  0.00000000E+00
  0.00000000E+00  0.00000000E+00  0.00000000E+00
  0.00000000E+00  0.00000000E+00  0.00000000E+00
  0.00000000E+00  0.00000000E+00  0.00000000E+00
  0.00000000E+00  0.00000000E+00  0.00000000E+00
  0.00000000E+00  0.00000000E+00  0.00000000E+00
  0.00000000E+00  0.00000000E+00  0.00000000E+00
  0.00000000E+00  0.00000000E+00  0.00000000E+00
  0.00000000E+00  0.00000000E+00  0.00000000E+00
  0.00000000E+00  0.00000000E+00  0.00000000E+00
  0.00000000E+00  0.00000000E+00  0.00000000E+00
  0.00000000E+00  0.00000000E+00  0.00000000E+00
  0.00000000E+00  0.00000000E+00  0.00000000E+00
  0.00000000E+00  0.00000000E+00  0.00000000E+00
  0.00000000E+00  0.00000000E+00  0.00000000E+00
  0.00000000E+00  0.00000000E+00  0.00000000E+00
  0.00000000E+00  0.00000000E+00  0.00000000E+00
  0.00000000E+00  0.00000000E+00  0.00000000E+00
  0.00000000E+00  0.00000000E+00  0.00000000E+00
  0.00000000E+00  0.00000000E+00  0.00000000E+00
  0.00000000E+00  0.00000000E+00  0.00000000E+00
  0.00000000E+00  0.00000000E+00  0.00000000E+00
  0.00000000E+00  0.00000000E+00  0.00000000E+00
  0.00000000E+00  0.00000000E+00  0.00000000E+00
  0.00000000E+00  0.00000000E+00  0.00000000E+00
  0.00000000E+00  0.00000000E+00  0.00000000E+00
  0.00000000E+00  0.00000000E+00  0.00000000E+00
  0.00000000E+00  0.00000000E+00  0.00000000E+00
  0.00000000E+00  0.00000000E+00  0.00000000E+00
  0.00000000E+00  0.00000000E+00  0.00000000E+00
  0.00000000E+00  0.00000000E+00  0.00000000E+00
  0.00000000E+00  0.00000000E+00  0.00000000E+00
