Co Fe Ni Pd Pt Ru                       
   1.00000000000000     
     5.5479598051896524    0.0000000000000000    0.0000000000000000
     0.0000000000000000    5.5479598051896524    0.0000000000000000
     0.0000000000000000    0.0000000000000000   28.7304999999999993
   Co   Fe   Ni   Pd   Pt   Ru
     3     3     3    16     4     3
Selective dynamics
Direct
  0.7692653724822118  0.7376790279050182  0.6517019935978530   T   T   T
  0.2287643303840096  0.7303497761764791  0.6538555844031559   T   T   T
  0.2480022383990149  0.7452205963422491  0.5319070563705993   T   T   T
  0.7597296252895718  0.2699795245256392  0.6541265104175189   T   T   T
  0.4810034782014678  0.5099011473423835  0.5919540575610042   T   T   T
  0.7545373355998117  0.2532539461181315  0.5306696909315259   T   T   T
  0.0047486322057172  0.4986000331053443  0.5898783168871398   T   T   T
 -0.0085258041787647  0.5088365272027100  0.7130165730857796   T   T   T
  0.2502163624741818  0.2596003301994090  0.5301030667369498   T   T   T
  0.2500000000000000  0.2500000000000000  0.2610466229268553   F   F   F
  0.0000000000000000  0.5000000000000000  0.4658638032752620   F   F   F
  0.5000000000000000  0.0000000000000000  0.4658638032752620   F   F   F
  0.5000000000000000  0.5000000000000000  0.4658638032752620   F   F   F
  0.7500000000000000  0.7500000000000000  0.3975914098257931   F   F   F
  0.7500000000000000  0.2500000000000000  0.2610466229268553   F   F   F
  0.2500000000000000  0.7500000000000000  0.2610466229268553   F   F   F
  0.7500000000000000  0.7500000000000000  0.2610466229268553   F   F   F
  0.0000000000000000  0.0000000000000000  0.3293190163763242   F   F   F
  0.0000000000000000  0.0000000000000000  0.4658638032752620   F   F   F
  0.5000000000000000  0.0000000000000000  0.3293190163763242   F   F   F
  0.5000000000000000  0.5000000000000000  0.3293190163763242   F   F   F
  0.2500000000000000  0.2500000000000000  0.3975914098257931   F   F   F
  0.7500000000000000  0.2500000000000000  0.3975914098257931   F   F   F
  0.2500000000000000  0.7500000000000000  0.3975914098257931   F   F   F
  0.0000000000000000  0.5000000000000000  0.3293190163763242   F   F   F
  0.5000718392476284  0.0116272648739820  0.5932290721069368   T   T   T
  0.7496122226615493  0.7405974846634323  0.5321917297609319   T   T   T
 -0.0149810491891763 -0.0048108275208926  0.7138384082020318   T   T   T
  0.5066111238295786  0.5176153955449416  0.7134589077194577   T   T   T
  0.0115822053289577  0.0072415796480956  0.5920652913045917   T   T   T
  0.2364533848658191  0.2623636635531930  0.6550282136087183   T   T   T
  0.4975880018422251  0.0013636557534536  0.7054440779804089   T   T   T
 
  0.00000000E+00  0.00000000E+00  0.00000000E+00
  0.00000000E+00  0.00000000E+00  0.00000000E+00
  0.00000000E+00  0.00000000E+00  0.00000000E+00
  0.00000000E+00  0.00000000E+00  0.00000000E+00
  0.00000000E+00  0.00000000E+00  0.00000000E+00
  0.00000000E+00  0.00000000E+00  0.00000000E+00
  0.00000000E+00  0.00000000E+00  0.00000000E+00
  0.00000000E+00  0.00000000E+00  0.00000000E+00
  0.00000000E+00  0.00000000E+00  0.00000000E+00
  0.00000000E+00  0.00000000E+00  0.00000000E+00
  0.00000000E+00  0.00000000E+00  0.00000000E+00
  0.00000000E+00  0.00000000E+00  0.00000000E+00
  0.00000000E+00  0.00000000E+00  0.00000000E+00
  0.00000000E+00  0.00000000E+00  0.00000000E+00
  0.00000000E+00  0.00000000E+00  0.00000000E+00
  0.00000000E+00  0.00000000E+00  0.00000000E+00
  0.00000000E+00  0.00000000E+00  0.00000000E+00
  0.00000000E+00  0.00000000E+00  0.00000000E+00
  0.00000000E+00  0.00000000E+00  0.00000000E+00
  0.00000000E+00  0.00000000E+00  0.00000000E+00
  0.00000000E+00  0.00000000E+00  0.00000000E+00
  0.00000000E+00  0.00000000E+00  0.00000000E+00
  0.00000000E+00  0.00000000E+00  0.00000000E+00
  0.00000000E+00  0.00000000E+00  0.00000000E+00
  0.00000000E+00  0.00000000E+00  0.00000000E+00
  0.00000000E+00  0.00000000E+00  0.00000000E+00
  0.00000000E+00  0.00000000E+00  0.00000000E+00
  0.00000000E+00  0.00000000E+00  0.00000000E+00
  0.00000000E+00  0.00000000E+00  0.00000000E+00
  0.00000000E+00  0.00000000E+00  0.00000000E+00
  0.00000000E+00  0.00000000E+00  0.00000000E+00
  0.00000000E+00  0.00000000E+00  0.00000000E+00
