Co Fe Ir Ni Ru                          
   1.00000000000000     
     8.3219397077844786    0.0000000000000000    0.0000000000000000
     0.0000000000000000    8.3219397077844786    0.0000000000000000
     0.0000000000000000    0.0000000000000000   20.8844999999999992
   Co   Fe   Ir   Ni   Ru
     7     8     7     7     7
Direct
  0.6793454263444471  0.0037051971591248  0.4610455511776807
  0.6887575248849250  0.3355291348744929  0.6244246977768292
  0.8271469741128217  0.1732556645440847  0.5435752054261063
  0.5130758249883144  0.8330670323365946  0.5332903840849019
  0.1577475715563361  0.1628073385963911  0.5436929791891030
  0.3336689456643037  0.6586221713212479  0.4649928132673857
  0.8332951119258430  0.8300618041495668  0.5423440612211117
 -0.0246367318443052  0.0230856149271919  0.6169022473153937
 -0.0008653111895478  0.3265898543832081  0.4592149654518542
  0.1624531497336425  0.4962756448990450  0.5396935461514255
  0.3266853199179440  0.0062680058682604  0.4662379046337237
  0.3461235228571387  0.6668598410848217  0.6124431845730159
  0.4942932376908458  0.8418619646494555  0.3942578544203569
  0.4757925094826481  0.5334558198700291  0.3776286054498826
  0.1597740094876477  0.5039519042748447  0.3860731232147644
  0.8346023879945712  0.5011043146751767  0.5419757210674006
  0.8402764470089449  0.1639695464495131  0.3808728384104562
  0.1906393269762033  0.8408734760950028  0.3834436692991921
  0.3356790193993403  0.3304152742672312  0.4536586865536048
  0.5115112502635110  0.1779153030153007  0.5488105069575880
  0.6669066623690998  0.6768188482729496  0.6218524113337209
  0.1456556789078606  0.8312053128662762  0.5492055982083692
  0.8311168478077843  0.8583843560846665  0.3780792795749797
  0.3141128479423576  0.3361607140827116  0.6167444730926597
  0.8490028672193696  0.4765401307685148  0.3749479525640849
  0.0046222058696826  0.3323225372897545  0.6170462833970782
 -0.0070913597704065 -0.0011639617620861  0.4615806360114659
  0.1592210700877969  0.1521126059893471  0.3833925628456847
  0.6693351941658987 -0.0136213590321495  0.6163469996657462
 -0.0048710892436901  0.6493440686047683  0.6243101163800470
  0.5154797754145242  0.4886561670638438  0.5447910008111689
 -0.0087423409832226  0.6798551277533895  0.4500458715443481
  0.6512580116641952  0.3404570220843857  0.4461503358465706
  0.3465197150443454 -0.0090155696291905  0.6140256833156973
  0.4979978037415638  0.1382014721399027  0.3780840727289216
  0.6841105925072642  0.6540676199823335  0.4488181770376794
 
  0.00000000E+00  0.00000000E+00  0.00000000E+00
  0.00000000E+00  0.00000000E+00  0.00000000E+00
  0.00000000E+00  0.00000000E+00  0.00000000E+00
  0.00000000E+00  0.00000000E+00  0.00000000E+00
  0.00000000E+00  0.00000000E+00  0.00000000E+00
  0.00000000E+00  0.00000000E+00  0.00000000E+00
  0.00000000E+00  0.00000000E+00  0.00000000E+00
  0.00000000E+00  0.00000000E+00  0.00000000E+00
  0.00000000E+00  0.00000000E+00  0.00000000E+00
  0.00000000E+00  0.00000000E+00  0.00000000E+00
  0.00000000E+00  0.00000000E+00  0.00000000E+00
  0.00000000E+00  0.00000000E+00  0.00000000E+00
  0.00000000E+00  0.00000000E+00  0.00000000E+00
  0.00000000E+00  0.00000000E+00  0.00000000E+00
  0.00000000E+00  0.00000000E+00  0.00000000E+00
  0.00000000E+00  0.00000000E+00  0.00000000E+00
  0.00000000E+00  0.00000000E+00  0.00000000E+00
  0.00000000E+00  0.00000000E+00  0.00000000E+00
  0.00000000E+00  0.00000000E+00  0.00000000E+00
  0.00000000E+00  0.00000000E+00  0.00000000E+00
  0.00000000E+00  0.00000000E+00  0.00000000E+00
  0.00000000E+00  0.00000000E+00  0.00000000E+00
  0.00000000E+00  0.00000000E+00  0.00000000E+00
  0.00000000E+00  0.00000000E+00  0.00000000E+00
  0.00000000E+00  0.00000000E+00  0.00000000E+00
  0.00000000E+00  0.00000000E+00  0.00000000E+00
  0.00000000E+00  0.00000000E+00  0.00000000E+00
  0.00000000E+00  0.00000000E+00  0.00000000E+00
  0.00000000E+00  0.00000000E+00  0.00000000E+00
  0.00000000E+00  0.00000000E+00  0.00000000E+00
  0.00000000E+00  0.00000000E+00  0.00000000E+00
  0.00000000E+00  0.00000000E+00  0.00000000E+00
  0.00000000E+00  0.00000000E+00  0.00000000E+00
  0.00000000E+00  0.00000000E+00  0.00000000E+00
  0.00000000E+00  0.00000000E+00  0.00000000E+00
  0.00000000E+00  0.00000000E+00  0.00000000E+00
