Pt                                      
   1.00000000000000     
     8.3219397077844786    0.0000000000000000    0.0000000000000000
     0.0000000000000000    8.3219397077844786    0.0000000000000000
     0.0000000000000000    0.0000000000000000   20.8844999999999992
   Pt
    36
Direct
  0.1666666666666643  0.1666666666666643  0.3561894704817851
  0.8333333333333357  0.1666666666666643  0.5483980583233844
  0.1666666666666643  0.5000000000000000  0.5483980583233844
  0.5000000000000000  0.5000000000000000  0.5483980583233844
  0.8333333333333357  0.5000000000000000  0.5483980583233844
  0.1666666666666643  0.8333333333333357  0.5483980583233844
  0.5000000000000000  0.8333333333333357  0.5483980583233844
  0.5000000000000000  0.1666666666666643  0.5483980583233844
  0.8333333333333357  0.8333333333333357  0.5483980583233844
  0.3333333333333357 -0.0000000000000000  0.6438105295182148
  0.6666666666666643 -0.0000000000000000  0.6438105295182148
 -0.0000000000000000  0.3333333333333357  0.6438105295182148
  0.3333333333333357  0.3333333333333357  0.6438105295182148
  0.6666666666666643  0.3333333333333357  0.6438105295182148
  0.0000000000000000  0.6666666666666643  0.6438105295182148
  0.0000000000000000 -0.0000000000000000  0.6438105295182148
  0.1666666666666643  0.1666666666666643  0.5483980583233844
  0.6666666666666643  0.6666666666666643  0.4516019416766156
  0.3333333333333357  0.6666666666666643  0.4516019416766156
  0.5000000000000000  0.1666666666666643  0.3561894704817851
  0.8333333333333357  0.1666666666666643  0.3561894704817851
  0.1666666666666643  0.5000000000000000  0.3561894704817851
  0.5000000000000000  0.5000000000000000  0.3561894704817851
  0.8333333333333357  0.5000000000000000  0.3561894704817851
  0.1666666666666643  0.8333333333333357  0.3561894704817851
  0.5000000000000000  0.8333333333333357  0.3561894704817851
  0.8333333333333357  0.8333333333333357  0.3561894704817851
  0.0000000000000000  0.0000000000000000  0.4516019416766156
  0.3333333333333357  0.0000000000000000  0.4516019416766156
  0.6666666666666643  0.0000000000000000  0.4516019416766156
 -0.0000000000000000  0.3333333333333357  0.4516019416766156
  0.3333333333333357  0.3333333333333357  0.4516019416766156
  0.6666666666666643  0.3333333333333357  0.4516019416766156
 -0.0000000000000000  0.6666666666666643  0.4516019416766156
  0.3333333333333357  0.6666666666666643  0.6438105295182148
  0.6666666666666643  0.6666666666666643  0.6438105295182148
 
  0.00000000E+00  0.00000000E+00  0.00000000E+00
  0.00000000E+00  0.00000000E+00  0.00000000E+00
  0.00000000E+00  0.00000000E+00  0.00000000E+00
  0.00000000E+00  0.00000000E+00  0.00000000E+00
  0.00000000E+00  0.00000000E+00  0.00000000E+00
  0.00000000E+00  0.00000000E+00  0.00000000E+00
  0.00000000E+00  0.00000000E+00  0.00000000E+00
  0.00000000E+00  0.00000000E+00  0.00000000E+00
  0.00000000E+00  0.00000000E+00  0.00000000E+00
  0.00000000E+00  0.00000000E+00  0.00000000E+00
  0.00000000E+00  0.00000000E+00  0.00000000E+00
  0.00000000E+00  0.00000000E+00  0.00000000E+00
  0.00000000E+00  0.00000000E+00  0.00000000E+00
  0.00000000E+00  0.00000000E+00  0.00000000E+00
  0.00000000E+00  0.00000000E+00  0.00000000E+00
  0.00000000E+00  0.00000000E+00  0.00000000E+00
  0.00000000E+00  0.00000000E+00  0.00000000E+00
  0.00000000E+00  0.00000000E+00  0.00000000E+00
  0.00000000E+00  0.00000000E+00  0.00000000E+00
  0.00000000E+00  0.00000000E+00  0.00000000E+00
  0.00000000E+00  0.00000000E+00  0.00000000E+00
  0.00000000E+00  0.00000000E+00  0.00000000E+00
  0.00000000E+00  0.00000000E+00  0.00000000E+00
  0.00000000E+00  0.00000000E+00  0.00000000E+00
  0.00000000E+00  0.00000000E+00  0.00000000E+00
  0.00000000E+00  0.00000000E+00  0.00000000E+00
  0.00000000E+00  0.00000000E+00  0.00000000E+00
  0.00000000E+00  0.00000000E+00  0.00000000E+00
  0.00000000E+00  0.00000000E+00  0.00000000E+00
  0.00000000E+00  0.00000000E+00  0.00000000E+00
  0.00000000E+00  0.00000000E+00  0.00000000E+00
  0.00000000E+00  0.00000000E+00  0.00000000E+00
  0.00000000E+00  0.00000000E+00  0.00000000E+00
  0.00000000E+00  0.00000000E+00  0.00000000E+00
  0.00000000E+00  0.00000000E+00  0.00000000E+00
  0.00000000E+00  0.00000000E+00  0.00000000E+00
