Ir                                      
   1.00000000000000     
     8.3219397077844786    0.0000000000000000    0.0000000000000000
     0.0000000000000000    8.3219397077844786    0.0000000000000000
     0.0000000000000000    0.0000000000000000   20.8844999999999992
   Ir
    36
Direct
  0.1666666666666643  0.1666666666666643  0.3654196892940191
  0.8333333333333357  0.1666666666666643  0.5473444370633332
  0.1666666666666643  0.5000000000000000  0.5473444370633332
  0.5000000000000000  0.5000000000000000  0.5473444370633332
  0.8333333333333357  0.5000000000000000  0.5473444370633332
  0.1666666666666643  0.8333333333333357  0.5473444370633332
  0.5000000000000000  0.8333333333333357  0.5473444370633332
  0.5000000000000000  0.1666666666666643  0.5473444370633332
  0.8333333333333357  0.8333333333333357  0.5473444370633332
  0.3333333333333357  0.0000000000000000  0.6345803107059810
  0.6666666666666643 -0.0000000000000000  0.6345803107059810
 -0.0000000000000000  0.3333333333333357  0.6345803107059810
  0.3333333333333357  0.3333333333333357  0.6345803107059810
  0.6666666666666643  0.3333333333333357  0.6345803107059810
 -0.0000000000000000  0.6666666666666643  0.6345803107059810
 -0.0000000000000000 -0.0000000000000000  0.6345803107059810
  0.1666666666666643  0.1666666666666643  0.5473444370633332
  0.6666666666666643  0.6666666666666643  0.4526555629366667
  0.3333333333333357  0.6666666666666643  0.4526555629366667
  0.5000000000000000  0.1666666666666643  0.3654196892940191
  0.8333333333333357  0.1666666666666643  0.3654196892940191
  0.1666666666666643  0.5000000000000000  0.3654196892940191
  0.5000000000000000  0.5000000000000000  0.3654196892940191
  0.8333333333333357  0.5000000000000000  0.3654196892940191
  0.1666666666666643  0.8333333333333357  0.3654196892940191
  0.5000000000000000  0.8333333333333357  0.3654196892940191
  0.8333333333333357  0.8333333333333357  0.3654196892940191
  0.0000000000000000  0.0000000000000000  0.4526555629366667
  0.3333333333333357 -0.0000000000000000  0.4526555629366667
  0.6666666666666643  0.0000000000000000  0.4526555629366667
 -0.0000000000000000  0.3333333333333357  0.4526555629366667
  0.3333333333333357  0.3333333333333357  0.4526555629366667
  0.6666666666666643  0.3333333333333357  0.4526555629366667
  0.0000000000000000  0.6666666666666643  0.4526555629366667
  0.3333333333333357  0.6666666666666643  0.6345803107059810
  0.6666666666666643  0.6666666666666643  0.6345803107059810
 
  0.00000000E+00  0.00000000E+00  0.00000000E+00
  0.00000000E+00  0.00000000E+00  0.00000000E+00
  0.00000000E+00  0.00000000E+00  0.00000000E+00
  0.00000000E+00  0.00000000E+00  0.00000000E+00
  0.00000000E+00  0.00000000E+00  0.00000000E+00
  0.00000000E+00  0.00000000E+00  0.00000000E+00
  0.00000000E+00  0.00000000E+00  0.00000000E+00
  0.00000000E+00  0.00000000E+00  0.00000000E+00
  0.00000000E+00  0.00000000E+00  0.00000000E+00
  0.00000000E+00  0.00000000E+00  0.00000000E+00
  0.00000000E+00  0.00000000E+00  0.00000000E+00
  0.00000000E+00  0.00000000E+00  0.00000000E+00
  0.00000000E+00  0.00000000E+00  0.00000000E+00
  0.00000000E+00  0.00000000E+00  0.00000000E+00
  0.00000000E+00  0.00000000E+00  0.00000000E+00
  0.00000000E+00  0.00000000E+00  0.00000000E+00
  0.00000000E+00  0.00000000E+00  0.00000000E+00
  0.00000000E+00  0.00000000E+00  0.00000000E+00
  0.00000000E+00  0.00000000E+00  0.00000000E+00
  0.00000000E+00  0.00000000E+00  0.00000000E+00
  0.00000000E+00  0.00000000E+00  0.00000000E+00
  0.00000000E+00  0.00000000E+00  0.00000000E+00
  0.00000000E+00  0.00000000E+00  0.00000000E+00
  0.00000000E+00  0.00000000E+00  0.00000000E+00
  0.00000000E+00  0.00000000E+00  0.00000000E+00
  0.00000000E+00  0.00000000E+00  0.00000000E+00
  0.00000000E+00  0.00000000E+00  0.00000000E+00
  0.00000000E+00  0.00000000E+00  0.00000000E+00
  0.00000000E+00  0.00000000E+00  0.00000000E+00
  0.00000000E+00  0.00000000E+00  0.00000000E+00
  0.00000000E+00  0.00000000E+00  0.00000000E+00
  0.00000000E+00  0.00000000E+00  0.00000000E+00
  0.00000000E+00  0.00000000E+00  0.00000000E+00
  0.00000000E+00  0.00000000E+00  0.00000000E+00
  0.00000000E+00  0.00000000E+00  0.00000000E+00
  0.00000000E+00  0.00000000E+00  0.00000000E+00
