Pd                                      
   1.00000000000000     
     8.3219397077844786    0.0000000000000000    0.0000000000000000
     0.0000000000000000    8.3219397077844786    0.0000000000000000
     0.0000000000000000    0.0000000000000000   20.8844999999999992
   Pd
    36
Direct
  0.1666666666666643  0.1666666666666643  0.3557665445376662
  0.8333333333333357  0.1666666666666643  0.5482754914975190
  0.1666666666666643  0.5000000000000000  0.5482754914975190
  0.5000000000000000  0.5000000000000000  0.5482754914975190
  0.8333333333333357  0.5000000000000000  0.5482754914975190
  0.1666666666666643  0.8333333333333357  0.5482754914975190
  0.5000000000000000  0.8333333333333357  0.5482754914975190
  0.5000000000000000  0.1666666666666643  0.5482754914975190
  0.8333333333333357  0.8333333333333357  0.5482754914975190
  0.3333333333333357 -0.0000000000000000  0.6442334554623337
  0.6666666666666643 -0.0000000000000000  0.6442334554623337
 -0.0000000000000000  0.3333333333333357  0.6442334554623337
  0.3333333333333357  0.3333333333333357  0.6442334554623337
  0.6666666666666643  0.3333333333333357  0.6442334554623337
  0.0000000000000000  0.6666666666666643  0.6442334554623337
  0.0000000000000000 -0.0000000000000000  0.6442334554623337
  0.1666666666666643  0.1666666666666643  0.5482754914975190
  0.6666666666666643  0.6666666666666643  0.4517245085024810
  0.3333333333333357  0.6666666666666643  0.4517245085024810
  0.5000000000000000  0.1666666666666643  0.3557665445376662
  0.8333333333333357  0.1666666666666643  0.3557665445376662
  0.1666666666666643  0.5000000000000000  0.3557665445376662
  0.5000000000000000  0.5000000000000000  0.3557665445376662
  0.8333333333333357  0.5000000000000000  0.3557665445376662
  0.1666666666666643  0.8333333333333357  0.3557665445376662
  0.5000000000000000  0.8333333333333357  0.3557665445376662
  0.8333333333333357  0.8333333333333357  0.3557665445376662
  0.0000000000000000  0.0000000000000000  0.4517245085024810
  0.3333333333333357 -0.0000000000000000  0.4517245085024810
  0.6666666666666643  0.0000000000000000  0.4517245085024810
  0.0000000000000000  0.3333333333333357  0.4517245085024810
  0.3333333333333357  0.3333333333333357  0.4517245085024810
  0.6666666666666643  0.3333333333333357  0.4517245085024810
  0.0000000000000000  0.6666666666666643  0.4517245085024810
  0.3333333333333357  0.6666666666666643  0.6442334554623337
  0.6666666666666643  0.6666666666666643  0.6442334554623337
 
  0.00000000E+00  0.00000000E+00  0.00000000E+00
  0.00000000E+00  0.00000000E+00  0.00000000E+00
  0.00000000E+00  0.00000000E+00  0.00000000E+00
  0.00000000E+00  0.00000000E+00  0.00000000E+00
  0.00000000E+00  0.00000000E+00  0.00000000E+00
  0.00000000E+00  0.00000000E+00  0.00000000E+00
  0.00000000E+00  0.00000000E+00  0.00000000E+00
  0.00000000E+00  0.00000000E+00  0.00000000E+00
  0.00000000E+00  0.00000000E+00  0.00000000E+00
  0.00000000E+00  0.00000000E+00  0.00000000E+00
  0.00000000E+00  0.00000000E+00  0.00000000E+00
  0.00000000E+00  0.00000000E+00  0.00000000E+00
  0.00000000E+00  0.00000000E+00  0.00000000E+00
  0.00000000E+00  0.00000000E+00  0.00000000E+00
  0.00000000E+00  0.00000000E+00  0.00000000E+00
  0.00000000E+00  0.00000000E+00  0.00000000E+00
  0.00000000E+00  0.00000000E+00  0.00000000E+00
  0.00000000E+00  0.00000000E+00  0.00000000E+00
  0.00000000E+00  0.00000000E+00  0.00000000E+00
  0.00000000E+00  0.00000000E+00  0.00000000E+00
  0.00000000E+00  0.00000000E+00  0.00000000E+00
  0.00000000E+00  0.00000000E+00  0.00000000E+00
  0.00000000E+00  0.00000000E+00  0.00000000E+00
  0.00000000E+00  0.00000000E+00  0.00000000E+00
  0.00000000E+00  0.00000000E+00  0.00000000E+00
  0.00000000E+00  0.00000000E+00  0.00000000E+00
  0.00000000E+00  0.00000000E+00  0.00000000E+00
  0.00000000E+00  0.00000000E+00  0.00000000E+00
  0.00000000E+00  0.00000000E+00  0.00000000E+00
  0.00000000E+00  0.00000000E+00  0.00000000E+00
  0.00000000E+00  0.00000000E+00  0.00000000E+00
  0.00000000E+00  0.00000000E+00  0.00000000E+00
  0.00000000E+00  0.00000000E+00  0.00000000E+00
  0.00000000E+00  0.00000000E+00  0.00000000E+00
  0.00000000E+00  0.00000000E+00  0.00000000E+00
  0.00000000E+00  0.00000000E+00  0.00000000E+00
